*SPEF "ieee 1481-1999"
*DESIGN "sram_wrapper_m"
*DATE "11:11:11 Fri 11 11, 1111"
*VENDOR "OpenRCX"
*PROGRAM "Parallel Extraction"
*VERSION "1.0"
*DESIGN_FLOW "NAME_SCOPE LOCAL" "PIN_CAP NONE"
*DIVIDER /
*DELIMITER :
*BUS_DELIMITER []
*T_UNIT 1 NS
*C_UNIT 1 PF
*R_UNIT 1 OHM
*L_UNIT 1 HENRY

*NAME_MAP
*1 addr_i[0]
*2 addr_i[1]
*3 addr_i[2]
*4 addr_i[3]
*5 addr_i[4]
*6 addr_i[5]
*7 addr_i[6]
*8 addr_i[7]
*9 addr_i[8]
*10 addr_i[9]
*11 ben_i[0]
*12 ben_i[10]
*13 ben_i[11]
*14 ben_i[12]
*15 ben_i[13]
*16 ben_i[14]
*17 ben_i[15]
*18 ben_i[16]
*19 ben_i[17]
*20 ben_i[18]
*21 ben_i[19]
*22 ben_i[1]
*23 ben_i[20]
*24 ben_i[21]
*25 ben_i[22]
*26 ben_i[23]
*27 ben_i[24]
*28 ben_i[25]
*29 ben_i[26]
*30 ben_i[27]
*31 ben_i[28]
*32 ben_i[29]
*33 ben_i[2]
*34 ben_i[30]
*35 ben_i[31]
*36 ben_i[3]
*37 ben_i[4]
*38 ben_i[5]
*39 ben_i[6]
*40 ben_i[7]
*41 ben_i[8]
*42 ben_i[9]
*43 clk_i
*44 data_i[0]
*45 data_i[10]
*46 data_i[11]
*47 data_i[12]
*48 data_i[13]
*49 data_i[14]
*50 data_i[15]
*51 data_i[16]
*52 data_i[17]
*53 data_i[18]
*54 data_i[19]
*55 data_i[1]
*56 data_i[20]
*57 data_i[21]
*58 data_i[22]
*59 data_i[23]
*60 data_i[24]
*61 data_i[25]
*62 data_i[26]
*63 data_i[27]
*64 data_i[28]
*65 data_i[29]
*66 data_i[2]
*67 data_i[30]
*68 data_i[31]
*69 data_i[3]
*70 data_i[4]
*71 data_i[5]
*72 data_i[6]
*73 data_i[7]
*74 data_i[8]
*75 data_i[9]
*76 data_o[0]
*77 data_o[10]
*78 data_o[11]
*79 data_o[12]
*80 data_o[13]
*81 data_o[14]
*82 data_o[15]
*83 data_o[16]
*84 data_o[17]
*85 data_o[18]
*86 data_o[19]
*87 data_o[1]
*88 data_o[20]
*89 data_o[21]
*90 data_o[22]
*91 data_o[23]
*92 data_o[24]
*93 data_o[25]
*94 data_o[26]
*95 data_o[27]
*96 data_o[28]
*97 data_o[29]
*98 data_o[2]
*99 data_o[30]
*100 data_o[31]
*101 data_o[3]
*102 data_o[4]
*103 data_o[5]
*104 data_o[6]
*105 data_o[7]
*106 data_o[8]
*107 data_o[9]
*108 en_i
*109 read_en_i
*112 net1
*113 net10
*114 net100
*115 net101
*116 net102
*117 net103
*118 net104
*119 net105
*120 net106
*121 net107
*122 net108
*123 net109
*124 net11
*125 net110
*126 net111
*127 net112
*128 net113
*129 net114
*130 net115
*131 net116
*132 net117
*133 net12
*134 net13
*135 net14
*136 net15
*137 net16
*138 net17
*139 net18
*140 net19
*141 net2
*142 net20
*143 net21
*144 net22
*145 net23
*146 net24
*147 net25
*148 net26
*149 net27
*150 net28
*151 net29
*152 net3
*153 net30
*154 net31
*155 net32
*156 net33
*157 net34
*158 net35
*159 net36
*160 net37
*161 net38
*162 net39
*163 net4
*164 net40
*165 net41
*166 net42
*167 net43
*168 net44
*169 net45
*170 net46
*171 net47
*172 net48
*173 net49
*174 net5
*175 net50
*176 net51
*177 net52
*178 net53
*179 net54
*180 net55
*181 net56
*182 net57
*183 net58
*184 net59
*185 net6
*186 net60
*187 net61
*188 net62
*189 net63
*190 net64
*191 net65
*192 net66
*193 net67
*194 net68
*195 net69
*196 net7
*197 net70
*198 net71
*199 net72
*200 net73
*201 net74
*202 net75
*203 net76
*204 net77
*205 net78
*206 net79
*207 net8
*208 net80
*209 net81
*210 net82
*211 net83
*212 net84
*213 net85
*214 net86
*215 net87
*216 net88
*217 net89
*218 net9
*219 net90
*220 net91
*221 net92
*222 net93
*223 net94
*224 net95
*225 net96
*226 net97
*227 net98
*228 net99
*229 ANTENNA_1
*230 ANTENNA_2
*231 ANTENNA_3
*232 ANTENNA_4
*233 ANTENNA_5
*234 ANTENNA_6
*235 ANTENNA_7
*236 ANTENNA_8
*237 FILLER_0_0_680
*238 FILLER_0_0_692
*239 FILLER_0_0_704
*240 FILLER_0_0_706
*241 FILLER_0_0_718
*242 FILLER_0_0_730
*243 FILLER_0_100_680
*244 FILLER_0_100_692
*245 FILLER_0_100_704
*246 FILLER_0_100_706
*247 FILLER_0_100_718
*248 FILLER_0_100_726
*249 FILLER_0_101_680
*250 FILLER_0_101_692
*251 FILLER_0_101_704
*252 FILLER_0_101_716
*253 FILLER_0_101_728
*254 FILLER_0_102_680
*255 FILLER_0_102_692
*256 FILLER_0_102_704
*257 FILLER_0_102_706
*258 FILLER_0_102_718
*259 FILLER_0_102_726
*260 FILLER_0_103_680
*261 FILLER_0_103_692
*262 FILLER_0_103_704
*263 FILLER_0_103_716
*264 FILLER_0_103_728
*265 FILLER_0_104_680
*266 FILLER_0_104_692
*267 FILLER_0_104_704
*268 FILLER_0_104_706
*269 FILLER_0_104_718
*270 FILLER_0_104_726
*271 FILLER_0_105_680
*272 FILLER_0_105_692
*273 FILLER_0_105_704
*274 FILLER_0_105_716
*275 FILLER_0_105_724
*276 FILLER_0_106_680
*277 FILLER_0_106_692
*278 FILLER_0_106_704
*279 FILLER_0_106_706
*280 FILLER_0_106_718
*281 FILLER_0_106_726
*282 FILLER_0_107_680
*283 FILLER_0_107_692
*284 FILLER_0_107_704
*285 FILLER_0_107_716
*286 FILLER_0_107_728
*287 FILLER_0_108_680
*288 FILLER_0_108_692
*289 FILLER_0_108_704
*290 FILLER_0_108_706
*291 FILLER_0_108_718
*292 FILLER_0_108_726
*293 FILLER_0_109_680
*294 FILLER_0_109_692
*295 FILLER_0_109_704
*296 FILLER_0_109_716
*297 FILLER_0_109_728
*298 FILLER_0_10_680
*299 FILLER_0_10_692
*300 FILLER_0_10_704
*301 FILLER_0_10_706
*302 FILLER_0_10_718
*303 FILLER_0_10_730
*304 FILLER_0_110_680
*305 FILLER_0_110_692
*306 FILLER_0_110_704
*307 FILLER_0_110_706
*308 FILLER_0_110_718
*309 FILLER_0_110_726
*310 FILLER_0_111_680
*311 FILLER_0_111_692
*312 FILLER_0_111_704
*313 FILLER_0_111_716
*314 FILLER_0_111_728
*315 FILLER_0_112_680
*316 FILLER_0_112_692
*317 FILLER_0_112_704
*318 FILLER_0_112_706
*319 FILLER_0_112_718
*320 FILLER_0_112_726
*321 FILLER_0_113_680
*322 FILLER_0_113_692
*323 FILLER_0_113_704
*324 FILLER_0_113_716
*325 FILLER_0_113_728
*326 FILLER_0_114_680
*327 FILLER_0_114_692
*328 FILLER_0_114_704
*329 FILLER_0_114_706
*330 FILLER_0_114_718
*331 FILLER_0_114_726
*332 FILLER_0_115_680
*333 FILLER_0_115_692
*334 FILLER_0_115_704
*335 FILLER_0_115_716
*336 FILLER_0_115_728
*337 FILLER_0_116_680
*338 FILLER_0_116_692
*339 FILLER_0_116_704
*340 FILLER_0_116_706
*341 FILLER_0_116_718
*342 FILLER_0_116_726
*343 FILLER_0_117_680
*344 FILLER_0_117_692
*345 FILLER_0_117_704
*346 FILLER_0_117_716
*347 FILLER_0_117_728
*348 FILLER_0_118_680
*349 FILLER_0_118_692
*350 FILLER_0_118_704
*351 FILLER_0_118_706
*352 FILLER_0_118_718
*353 FILLER_0_118_726
*354 FILLER_0_119_680
*355 FILLER_0_119_692
*356 FILLER_0_119_704
*357 FILLER_0_119_716
*358 FILLER_0_119_728
*359 FILLER_0_11_680
*360 FILLER_0_11_692
*361 FILLER_0_11_704
*362 FILLER_0_11_716
*363 FILLER_0_11_728
*364 FILLER_0_11_732
*365 FILLER_0_120_680
*366 FILLER_0_120_692
*367 FILLER_0_120_704
*368 FILLER_0_120_706
*369 FILLER_0_120_718
*370 FILLER_0_120_726
*371 FILLER_0_121_680
*372 FILLER_0_121_692
*373 FILLER_0_121_704
*374 FILLER_0_121_716
*375 FILLER_0_121_728
*376 FILLER_0_122_680
*377 FILLER_0_122_692
*378 FILLER_0_122_704
*379 FILLER_0_122_706
*380 FILLER_0_122_718
*381 FILLER_0_122_726
*382 FILLER_0_123_680
*383 FILLER_0_123_692
*384 FILLER_0_123_704
*385 FILLER_0_123_716
*386 FILLER_0_123_724
*387 FILLER_0_124_680
*388 FILLER_0_124_692
*389 FILLER_0_124_704
*390 FILLER_0_124_706
*391 FILLER_0_124_718
*392 FILLER_0_124_726
*393 FILLER_0_125_680
*394 FILLER_0_125_692
*395 FILLER_0_125_704
*396 FILLER_0_125_716
*397 FILLER_0_125_728
*398 FILLER_0_126_680
*399 FILLER_0_126_692
*400 FILLER_0_126_704
*401 FILLER_0_126_706
*402 FILLER_0_126_718
*403 FILLER_0_126_726
*404 FILLER_0_127_680
*405 FILLER_0_127_692
*406 FILLER_0_127_704
*407 FILLER_0_127_716
*408 FILLER_0_127_728
*409 FILLER_0_128_680
*410 FILLER_0_128_692
*411 FILLER_0_128_704
*412 FILLER_0_128_706
*413 FILLER_0_128_718
*414 FILLER_0_128_726
*415 FILLER_0_129_680
*416 FILLER_0_129_692
*417 FILLER_0_129_704
*418 FILLER_0_129_716
*419 FILLER_0_129_728
*420 FILLER_0_12_680
*421 FILLER_0_12_692
*422 FILLER_0_12_704
*423 FILLER_0_12_706
*424 FILLER_0_12_718
*425 FILLER_0_12_730
*426 FILLER_0_130_680
*427 FILLER_0_130_692
*428 FILLER_0_130_704
*429 FILLER_0_130_706
*430 FILLER_0_130_718
*431 FILLER_0_130_730
*432 FILLER_0_131_680
*433 FILLER_0_131_692
*434 FILLER_0_131_704
*435 FILLER_0_131_716
*436 FILLER_0_131_728
*437 FILLER_0_131_732
*438 FILLER_0_132_680
*439 FILLER_0_132_692
*440 FILLER_0_132_704
*441 FILLER_0_132_706
*442 FILLER_0_132_718
*443 FILLER_0_132_730
*444 FILLER_0_133_680
*445 FILLER_0_133_692
*446 FILLER_0_133_704
*447 FILLER_0_133_716
*448 FILLER_0_133_728
*449 FILLER_0_133_732
*450 FILLER_0_134_680
*451 FILLER_0_134_692
*452 FILLER_0_134_704
*453 FILLER_0_134_706
*454 FILLER_0_134_718
*455 FILLER_0_134_730
*456 FILLER_0_135_680
*457 FILLER_0_135_692
*458 FILLER_0_135_704
*459 FILLER_0_135_716
*460 FILLER_0_135_728
*461 FILLER_0_135_732
*462 FILLER_0_136_680
*463 FILLER_0_136_692
*464 FILLER_0_136_704
*465 FILLER_0_136_706
*466 FILLER_0_136_718
*467 FILLER_0_136_730
*468 FILLER_0_137_680
*469 FILLER_0_137_692
*470 FILLER_0_137_704
*471 FILLER_0_137_716
*472 FILLER_0_137_728
*473 FILLER_0_137_732
*474 FILLER_0_138_680
*475 FILLER_0_138_692
*476 FILLER_0_138_704
*477 FILLER_0_138_706
*478 FILLER_0_138_718
*479 FILLER_0_138_730
*480 FILLER_0_139_680
*481 FILLER_0_139_692
*482 FILLER_0_139_704
*483 FILLER_0_139_716
*484 FILLER_0_139_728
*485 FILLER_0_139_732
*486 FILLER_0_13_680
*487 FILLER_0_13_692
*488 FILLER_0_13_704
*489 FILLER_0_13_716
*490 FILLER_0_13_728
*491 FILLER_0_13_732
*492 FILLER_0_140_680
*493 FILLER_0_140_692
*494 FILLER_0_140_704
*495 FILLER_0_140_706
*496 FILLER_0_140_718
*497 FILLER_0_140_730
*498 FILLER_0_141_680
*499 FILLER_0_141_692
*500 FILLER_0_141_704
*501 FILLER_0_141_716
*502 FILLER_0_141_728
*503 FILLER_0_141_732
*504 FILLER_0_142_680
*505 FILLER_0_142_692
*506 FILLER_0_142_704
*507 FILLER_0_142_706
*508 FILLER_0_142_718
*509 FILLER_0_142_730
*510 FILLER_0_143_680
*511 FILLER_0_143_692
*512 FILLER_0_143_704
*513 FILLER_0_143_716
*514 FILLER_0_143_728
*515 FILLER_0_143_732
*516 FILLER_0_144_680
*517 FILLER_0_144_692
*518 FILLER_0_144_704
*519 FILLER_0_144_706
*520 FILLER_0_144_718
*521 FILLER_0_144_730
*522 FILLER_0_145_680
*523 FILLER_0_145_692
*524 FILLER_0_145_704
*525 FILLER_0_145_716
*526 FILLER_0_145_728
*527 FILLER_0_145_732
*528 FILLER_0_146_109
*529 FILLER_0_146_113
*530 FILLER_0_146_125
*531 FILLER_0_146_137
*532 FILLER_0_146_141
*533 FILLER_0_146_15
*534 FILLER_0_146_153
*535 FILLER_0_146_165
*536 FILLER_0_146_169
*537 FILLER_0_146_181
*538 FILLER_0_146_193
*539 FILLER_0_146_197
*540 FILLER_0_146_209
*541 FILLER_0_146_221
*542 FILLER_0_146_225
*543 FILLER_0_146_237
*544 FILLER_0_146_249
*545 FILLER_0_146_253
*546 FILLER_0_146_265
*547 FILLER_0_146_27
*548 FILLER_0_146_277
*549 FILLER_0_146_281
*550 FILLER_0_146_29
*551 FILLER_0_146_293
*552 FILLER_0_146_3
*553 FILLER_0_146_305
*554 FILLER_0_146_309
*555 FILLER_0_146_321
*556 FILLER_0_146_333
*557 FILLER_0_146_337
*558 FILLER_0_146_349
*559 FILLER_0_146_361
*560 FILLER_0_146_365
*561 FILLER_0_146_377
*562 FILLER_0_146_389
*563 FILLER_0_146_393
*564 FILLER_0_146_405
*565 FILLER_0_146_41
*566 FILLER_0_146_417
*567 FILLER_0_146_421
*568 FILLER_0_146_433
*569 FILLER_0_146_445
*570 FILLER_0_146_449
*571 FILLER_0_146_461
*572 FILLER_0_146_473
*573 FILLER_0_146_477
*574 FILLER_0_146_489
*575 FILLER_0_146_501
*576 FILLER_0_146_505
*577 FILLER_0_146_517
*578 FILLER_0_146_529
*579 FILLER_0_146_53
*580 FILLER_0_146_533
*581 FILLER_0_146_545
*582 FILLER_0_146_557
*583 FILLER_0_146_561
*584 FILLER_0_146_57
*585 FILLER_0_146_573
*586 FILLER_0_146_585
*587 FILLER_0_146_589
*588 FILLER_0_146_601
*589 FILLER_0_146_613
*590 FILLER_0_146_617
*591 FILLER_0_146_629
*592 FILLER_0_146_641
*593 FILLER_0_146_645
*594 FILLER_0_146_657
*595 FILLER_0_146_669
*596 FILLER_0_146_673
*597 FILLER_0_146_685
*598 FILLER_0_146_69
*599 FILLER_0_146_697
*600 FILLER_0_146_701
*601 FILLER_0_146_713
*602 FILLER_0_146_725
*603 FILLER_0_146_729
*604 FILLER_0_146_81
*605 FILLER_0_146_85
*606 FILLER_0_146_97
*607 FILLER_0_147_105
*608 FILLER_0_147_111
*609 FILLER_0_147_113
*610 FILLER_0_147_125
*611 FILLER_0_147_137
*612 FILLER_0_147_149
*613 FILLER_0_147_15
*614 FILLER_0_147_161
*615 FILLER_0_147_167
*616 FILLER_0_147_169
*617 FILLER_0_147_181
*618 FILLER_0_147_193
*619 FILLER_0_147_205
*620 FILLER_0_147_217
*621 FILLER_0_147_223
*622 FILLER_0_147_225
*623 FILLER_0_147_237
*624 FILLER_0_147_249
*625 FILLER_0_147_261
*626 FILLER_0_147_27
*627 FILLER_0_147_273
*628 FILLER_0_147_279
*629 FILLER_0_147_281
*630 FILLER_0_147_293
*631 FILLER_0_147_3
*632 FILLER_0_147_305
*633 FILLER_0_147_317
*634 FILLER_0_147_329
*635 FILLER_0_147_335
*636 FILLER_0_147_337
*637 FILLER_0_147_349
*638 FILLER_0_147_361
*639 FILLER_0_147_373
*640 FILLER_0_147_385
*641 FILLER_0_147_39
*642 FILLER_0_147_391
*643 FILLER_0_147_393
*644 FILLER_0_147_405
*645 FILLER_0_147_417
*646 FILLER_0_147_429
*647 FILLER_0_147_441
*648 FILLER_0_147_447
*649 FILLER_0_147_449
*650 FILLER_0_147_461
*651 FILLER_0_147_473
*652 FILLER_0_147_485
*653 FILLER_0_147_497
*654 FILLER_0_147_503
*655 FILLER_0_147_505
*656 FILLER_0_147_51
*657 FILLER_0_147_517
*658 FILLER_0_147_529
*659 FILLER_0_147_541
*660 FILLER_0_147_55
*661 FILLER_0_147_553
*662 FILLER_0_147_559
*663 FILLER_0_147_561
*664 FILLER_0_147_57
*665 FILLER_0_147_573
*666 FILLER_0_147_585
*667 FILLER_0_147_597
*668 FILLER_0_147_609
*669 FILLER_0_147_615
*670 FILLER_0_147_617
*671 FILLER_0_147_629
*672 FILLER_0_147_641
*673 FILLER_0_147_653
*674 FILLER_0_147_665
*675 FILLER_0_147_671
*676 FILLER_0_147_673
*677 FILLER_0_147_685
*678 FILLER_0_147_69
*679 FILLER_0_147_697
*680 FILLER_0_147_709
*681 FILLER_0_147_721
*682 FILLER_0_147_727
*683 FILLER_0_147_729
*684 FILLER_0_147_81
*685 FILLER_0_147_93
*686 FILLER_0_148_109
*687 FILLER_0_148_121
*688 FILLER_0_148_133
*689 FILLER_0_148_139
*690 FILLER_0_148_141
*691 FILLER_0_148_15
*692 FILLER_0_148_153
*693 FILLER_0_148_165
*694 FILLER_0_148_177
*695 FILLER_0_148_189
*696 FILLER_0_148_195
*697 FILLER_0_148_197
*698 FILLER_0_148_209
*699 FILLER_0_148_221
*700 FILLER_0_148_233
*701 FILLER_0_148_245
*702 FILLER_0_148_251
*703 FILLER_0_148_253
*704 FILLER_0_148_265
*705 FILLER_0_148_27
*706 FILLER_0_148_277
*707 FILLER_0_148_289
*708 FILLER_0_148_29
*709 FILLER_0_148_3
*710 FILLER_0_148_301
*711 FILLER_0_148_307
*712 FILLER_0_148_309
*713 FILLER_0_148_321
*714 FILLER_0_148_333
*715 FILLER_0_148_345
*716 FILLER_0_148_357
*717 FILLER_0_148_363
*718 FILLER_0_148_365
*719 FILLER_0_148_377
*720 FILLER_0_148_389
*721 FILLER_0_148_401
*722 FILLER_0_148_41
*723 FILLER_0_148_413
*724 FILLER_0_148_419
*725 FILLER_0_148_421
*726 FILLER_0_148_433
*727 FILLER_0_148_445
*728 FILLER_0_148_457
*729 FILLER_0_148_469
*730 FILLER_0_148_475
*731 FILLER_0_148_477
*732 FILLER_0_148_489
*733 FILLER_0_148_501
*734 FILLER_0_148_513
*735 FILLER_0_148_525
*736 FILLER_0_148_53
*737 FILLER_0_148_531
*738 FILLER_0_148_533
*739 FILLER_0_148_545
*740 FILLER_0_148_557
*741 FILLER_0_148_569
*742 FILLER_0_148_581
*743 FILLER_0_148_587
*744 FILLER_0_148_589
*745 FILLER_0_148_601
*746 FILLER_0_148_613
*747 FILLER_0_148_625
*748 FILLER_0_148_637
*749 FILLER_0_148_643
*750 FILLER_0_148_645
*751 FILLER_0_148_65
*752 FILLER_0_148_657
*753 FILLER_0_148_669
*754 FILLER_0_148_681
*755 FILLER_0_148_693
*756 FILLER_0_148_699
*757 FILLER_0_148_701
*758 FILLER_0_148_713
*759 FILLER_0_148_725
*760 FILLER_0_148_77
*761 FILLER_0_148_83
*762 FILLER_0_148_85
*763 FILLER_0_148_97
*764 FILLER_0_149_109
*765 FILLER_0_149_113
*766 FILLER_0_149_125
*767 FILLER_0_149_137
*768 FILLER_0_149_141
*769 FILLER_0_149_15
*770 FILLER_0_149_153
*771 FILLER_0_149_165
*772 FILLER_0_149_169
*773 FILLER_0_149_181
*774 FILLER_0_149_193
*775 FILLER_0_149_197
*776 FILLER_0_149_209
*777 FILLER_0_149_221
*778 FILLER_0_149_225
*779 FILLER_0_149_237
*780 FILLER_0_149_249
*781 FILLER_0_149_253
*782 FILLER_0_149_265
*783 FILLER_0_149_27
*784 FILLER_0_149_277
*785 FILLER_0_149_281
*786 FILLER_0_149_29
*787 FILLER_0_149_293
*788 FILLER_0_149_3
*789 FILLER_0_149_305
*790 FILLER_0_149_309
*791 FILLER_0_149_321
*792 FILLER_0_149_333
*793 FILLER_0_149_337
*794 FILLER_0_149_349
*795 FILLER_0_149_361
*796 FILLER_0_149_365
*797 FILLER_0_149_377
*798 FILLER_0_149_389
*799 FILLER_0_149_393
*800 FILLER_0_149_405
*801 FILLER_0_149_41
*802 FILLER_0_149_417
*803 FILLER_0_149_421
*804 FILLER_0_149_433
*805 FILLER_0_149_445
*806 FILLER_0_149_449
*807 FILLER_0_149_461
*808 FILLER_0_149_473
*809 FILLER_0_149_477
*810 FILLER_0_149_489
*811 FILLER_0_149_501
*812 FILLER_0_149_505
*813 FILLER_0_149_517
*814 FILLER_0_149_529
*815 FILLER_0_149_53
*816 FILLER_0_149_533
*817 FILLER_0_149_545
*818 FILLER_0_149_557
*819 FILLER_0_149_561
*820 FILLER_0_149_57
*821 FILLER_0_149_573
*822 FILLER_0_149_585
*823 FILLER_0_149_589
*824 FILLER_0_149_601
*825 FILLER_0_149_613
*826 FILLER_0_149_617
*827 FILLER_0_149_629
*828 FILLER_0_149_641
*829 FILLER_0_149_645
*830 FILLER_0_149_657
*831 FILLER_0_149_669
*832 FILLER_0_149_673
*833 FILLER_0_149_685
*834 FILLER_0_149_69
*835 FILLER_0_149_697
*836 FILLER_0_149_701
*837 FILLER_0_149_713
*838 FILLER_0_149_725
*839 FILLER_0_149_729
*840 FILLER_0_149_81
*841 FILLER_0_149_85
*842 FILLER_0_149_97
*843 FILLER_0_14_680
*844 FILLER_0_14_692
*845 FILLER_0_14_704
*846 FILLER_0_14_706
*847 FILLER_0_14_718
*848 FILLER_0_14_730
*849 FILLER_0_15_680
*850 FILLER_0_15_692
*851 FILLER_0_15_704
*852 FILLER_0_15_716
*853 FILLER_0_15_728
*854 FILLER_0_15_732
*855 FILLER_0_16_680
*856 FILLER_0_16_692
*857 FILLER_0_16_704
*858 FILLER_0_16_706
*859 FILLER_0_16_718
*860 FILLER_0_16_730
*861 FILLER_0_17_680
*862 FILLER_0_17_692
*863 FILLER_0_17_704
*864 FILLER_0_17_716
*865 FILLER_0_17_728
*866 FILLER_0_17_732
*867 FILLER_0_18_680
*868 FILLER_0_18_692
*869 FILLER_0_18_704
*870 FILLER_0_18_706
*871 FILLER_0_18_718
*872 FILLER_0_18_730
*873 FILLER_0_19_680
*874 FILLER_0_19_692
*875 FILLER_0_19_704
*876 FILLER_0_19_716
*877 FILLER_0_19_728
*878 FILLER_0_19_732
*879 FILLER_0_1_680
*880 FILLER_0_1_692
*881 FILLER_0_1_704
*882 FILLER_0_1_716
*883 FILLER_0_1_728
*884 FILLER_0_1_732
*885 FILLER_0_20_680
*886 FILLER_0_20_692
*887 FILLER_0_20_704
*888 FILLER_0_20_706
*889 FILLER_0_20_718
*890 FILLER_0_20_730
*891 FILLER_0_21_680
*892 FILLER_0_21_692
*893 FILLER_0_21_704
*894 FILLER_0_21_716
*895 FILLER_0_21_728
*896 FILLER_0_21_732
*897 FILLER_0_22_680
*898 FILLER_0_22_692
*899 FILLER_0_22_704
*900 FILLER_0_22_706
*901 FILLER_0_22_718
*902 FILLER_0_22_726
*903 FILLER_0_23_680
*904 FILLER_0_23_692
*905 FILLER_0_23_704
*906 FILLER_0_23_716
*907 FILLER_0_23_724
*908 FILLER_0_24_680
*909 FILLER_0_24_692
*910 FILLER_0_24_704
*911 FILLER_0_24_706
*912 FILLER_0_24_718
*913 FILLER_0_24_726
*914 FILLER_0_25_680
*915 FILLER_0_25_692
*916 FILLER_0_25_704
*917 FILLER_0_25_716
*918 FILLER_0_25_728
*919 FILLER_0_26_680
*920 FILLER_0_26_692
*921 FILLER_0_26_704
*922 FILLER_0_26_706
*923 FILLER_0_26_718
*924 FILLER_0_26_726
*925 FILLER_0_27_680
*926 FILLER_0_27_692
*927 FILLER_0_27_704
*928 FILLER_0_27_716
*929 FILLER_0_27_724
*930 FILLER_0_27_727
*931 FILLER_0_28_680
*932 FILLER_0_28_692
*933 FILLER_0_28_704
*934 FILLER_0_28_706
*935 FILLER_0_28_718
*936 FILLER_0_28_726
*937 FILLER_0_29_680
*938 FILLER_0_29_692
*939 FILLER_0_29_704
*940 FILLER_0_29_716
*941 FILLER_0_29_728
*942 FILLER_0_2_680
*943 FILLER_0_2_692
*944 FILLER_0_2_704
*945 FILLER_0_2_706
*946 FILLER_0_2_718
*947 FILLER_0_2_730
*948 FILLER_0_30_680
*949 FILLER_0_30_692
*950 FILLER_0_30_704
*951 FILLER_0_30_706
*952 FILLER_0_30_718
*953 FILLER_0_30_726
*954 FILLER_0_31_680
*955 FILLER_0_31_692
*956 FILLER_0_31_704
*957 FILLER_0_31_716
*958 FILLER_0_31_724
*959 FILLER_0_32_680
*960 FILLER_0_32_692
*961 FILLER_0_32_704
*962 FILLER_0_32_706
*963 FILLER_0_32_718
*964 FILLER_0_32_726
*965 FILLER_0_33_680
*966 FILLER_0_33_692
*967 FILLER_0_33_704
*968 FILLER_0_33_716
*969 FILLER_0_33_728
*970 FILLER_0_34_680
*971 FILLER_0_34_692
*972 FILLER_0_34_704
*973 FILLER_0_34_706
*974 FILLER_0_34_718
*975 FILLER_0_34_726
*976 FILLER_0_35_680
*977 FILLER_0_35_692
*978 FILLER_0_35_704
*979 FILLER_0_35_716
*980 FILLER_0_35_728
*981 FILLER_0_36_680
*982 FILLER_0_36_692
*983 FILLER_0_36_704
*984 FILLER_0_36_706
*985 FILLER_0_36_718
*986 FILLER_0_36_726
*987 FILLER_0_37_680
*988 FILLER_0_37_692
*989 FILLER_0_37_704
*990 FILLER_0_37_716
*991 FILLER_0_37_728
*992 FILLER_0_38_680
*993 FILLER_0_38_692
*994 FILLER_0_38_704
*995 FILLER_0_38_706
*996 FILLER_0_38_718
*997 FILLER_0_38_726
*998 FILLER_0_39_680
*999 FILLER_0_39_692
*1000 FILLER_0_39_704
*1001 FILLER_0_39_716
*1002 FILLER_0_39_724
*1003 FILLER_0_3_680
*1004 FILLER_0_3_692
*1005 FILLER_0_3_704
*1006 FILLER_0_3_716
*1007 FILLER_0_3_728
*1008 FILLER_0_3_732
*1009 FILLER_0_40_680
*1010 FILLER_0_40_692
*1011 FILLER_0_40_704
*1012 FILLER_0_40_706
*1013 FILLER_0_40_718
*1014 FILLER_0_40_726
*1015 FILLER_0_41_680
*1016 FILLER_0_41_692
*1017 FILLER_0_41_704
*1018 FILLER_0_41_716
*1019 FILLER_0_41_728
*1020 FILLER_0_42_680
*1021 FILLER_0_42_692
*1022 FILLER_0_42_704
*1023 FILLER_0_42_706
*1024 FILLER_0_42_718
*1025 FILLER_0_42_726
*1026 FILLER_0_43_680
*1027 FILLER_0_43_692
*1028 FILLER_0_43_704
*1029 FILLER_0_43_716
*1030 FILLER_0_43_728
*1031 FILLER_0_44_680
*1032 FILLER_0_44_692
*1033 FILLER_0_44_704
*1034 FILLER_0_44_706
*1035 FILLER_0_44_718
*1036 FILLER_0_44_726
*1037 FILLER_0_45_680
*1038 FILLER_0_45_692
*1039 FILLER_0_45_704
*1040 FILLER_0_45_716
*1041 FILLER_0_45_728
*1042 FILLER_0_46_680
*1043 FILLER_0_46_692
*1044 FILLER_0_46_704
*1045 FILLER_0_46_706
*1046 FILLER_0_46_718
*1047 FILLER_0_46_726
*1048 FILLER_0_47_680
*1049 FILLER_0_47_692
*1050 FILLER_0_47_704
*1051 FILLER_0_47_716
*1052 FILLER_0_47_724
*1053 FILLER_0_48_680
*1054 FILLER_0_48_692
*1055 FILLER_0_48_704
*1056 FILLER_0_48_706
*1057 FILLER_0_48_718
*1058 FILLER_0_48_726
*1059 FILLER_0_49_680
*1060 FILLER_0_49_692
*1061 FILLER_0_49_704
*1062 FILLER_0_49_716
*1063 FILLER_0_49_728
*1064 FILLER_0_4_680
*1065 FILLER_0_4_692
*1066 FILLER_0_4_704
*1067 FILLER_0_4_706
*1068 FILLER_0_4_718
*1069 FILLER_0_4_730
*1070 FILLER_0_50_680
*1071 FILLER_0_50_692
*1072 FILLER_0_50_704
*1073 FILLER_0_50_706
*1074 FILLER_0_50_718
*1075 FILLER_0_50_726
*1076 FILLER_0_51_680
*1077 FILLER_0_51_692
*1078 FILLER_0_51_704
*1079 FILLER_0_51_716
*1080 FILLER_0_51_728
*1081 FILLER_0_52_680
*1082 FILLER_0_52_692
*1083 FILLER_0_52_704
*1084 FILLER_0_52_706
*1085 FILLER_0_52_718
*1086 FILLER_0_52_726
*1087 FILLER_0_53_680
*1088 FILLER_0_53_692
*1089 FILLER_0_53_704
*1090 FILLER_0_53_716
*1091 FILLER_0_53_728
*1092 FILLER_0_54_680
*1093 FILLER_0_54_692
*1094 FILLER_0_54_704
*1095 FILLER_0_54_706
*1096 FILLER_0_54_718
*1097 FILLER_0_54_726
*1098 FILLER_0_55_680
*1099 FILLER_0_55_692
*1100 FILLER_0_55_704
*1101 FILLER_0_55_716
*1102 FILLER_0_55_728
*1103 FILLER_0_56_680
*1104 FILLER_0_56_692
*1105 FILLER_0_56_704
*1106 FILLER_0_56_706
*1107 FILLER_0_56_718
*1108 FILLER_0_56_726
*1109 FILLER_0_57_680
*1110 FILLER_0_57_692
*1111 FILLER_0_57_704
*1112 FILLER_0_57_716
*1113 FILLER_0_57_728
*1114 FILLER_0_58_680
*1115 FILLER_0_58_692
*1116 FILLER_0_58_704
*1117 FILLER_0_58_706
*1118 FILLER_0_58_718
*1119 FILLER_0_58_726
*1120 FILLER_0_59_680
*1121 FILLER_0_59_692
*1122 FILLER_0_59_704
*1123 FILLER_0_59_716
*1124 FILLER_0_59_724
*1125 FILLER_0_5_680
*1126 FILLER_0_5_692
*1127 FILLER_0_5_704
*1128 FILLER_0_5_716
*1129 FILLER_0_5_728
*1130 FILLER_0_5_732
*1131 FILLER_0_60_680
*1132 FILLER_0_60_692
*1133 FILLER_0_60_704
*1134 FILLER_0_60_706
*1135 FILLER_0_60_718
*1136 FILLER_0_60_726
*1137 FILLER_0_61_680
*1138 FILLER_0_61_692
*1139 FILLER_0_61_704
*1140 FILLER_0_61_716
*1141 FILLER_0_61_728
*1142 FILLER_0_62_680
*1143 FILLER_0_62_692
*1144 FILLER_0_62_704
*1145 FILLER_0_62_706
*1146 FILLER_0_62_718
*1147 FILLER_0_62_726
*1148 FILLER_0_63_683
*1149 FILLER_0_63_695
*1150 FILLER_0_63_707
*1151 FILLER_0_63_719
*1152 FILLER_0_63_727
*1153 FILLER_0_64_680
*1154 FILLER_0_64_692
*1155 FILLER_0_64_704
*1156 FILLER_0_64_706
*1157 FILLER_0_64_718
*1158 FILLER_0_64_726
*1159 FILLER_0_65_683
*1160 FILLER_0_65_695
*1161 FILLER_0_65_707
*1162 FILLER_0_65_719
*1163 FILLER_0_65_727
*1164 FILLER_0_66_680
*1165 FILLER_0_66_692
*1166 FILLER_0_66_704
*1167 FILLER_0_66_706
*1168 FILLER_0_66_718
*1169 FILLER_0_66_724
*1170 FILLER_0_66_727
*1171 FILLER_0_67_680
*1172 FILLER_0_67_692
*1173 FILLER_0_67_704
*1174 FILLER_0_67_716
*1175 FILLER_0_67_724
*1176 FILLER_0_68_680
*1177 FILLER_0_68_692
*1178 FILLER_0_68_704
*1179 FILLER_0_68_706
*1180 FILLER_0_68_718
*1181 FILLER_0_68_726
*1182 FILLER_0_69_680
*1183 FILLER_0_69_692
*1184 FILLER_0_69_704
*1185 FILLER_0_69_716
*1186 FILLER_0_69_724
*1187 FILLER_0_69_727
*1188 FILLER_0_6_680
*1189 FILLER_0_6_692
*1190 FILLER_0_6_704
*1191 FILLER_0_6_706
*1192 FILLER_0_6_718
*1193 FILLER_0_6_730
*1194 FILLER_0_70_680
*1195 FILLER_0_70_692
*1196 FILLER_0_70_704
*1197 FILLER_0_70_706
*1198 FILLER_0_70_718
*1199 FILLER_0_70_726
*1200 FILLER_0_71_686
*1201 FILLER_0_71_698
*1202 FILLER_0_71_710
*1203 FILLER_0_71_722
*1204 FILLER_0_71_726
*1205 FILLER_0_72_680
*1206 FILLER_0_72_692
*1207 FILLER_0_72_704
*1208 FILLER_0_72_706
*1209 FILLER_0_72_718
*1210 FILLER_0_72_722
*1211 FILLER_0_72_725
*1212 FILLER_0_73_680
*1213 FILLER_0_73_692
*1214 FILLER_0_73_704
*1215 FILLER_0_73_716
*1216 FILLER_0_73_724
*1217 FILLER_0_74_680
*1218 FILLER_0_74_692
*1219 FILLER_0_74_704
*1220 FILLER_0_74_706
*1221 FILLER_0_74_718
*1222 FILLER_0_74_726
*1223 FILLER_0_75_683
*1224 FILLER_0_75_695
*1225 FILLER_0_75_707
*1226 FILLER_0_75_719
*1227 FILLER_0_75_725
*1228 FILLER_0_76_683
*1229 FILLER_0_76_695
*1230 FILLER_0_76_703
*1231 FILLER_0_76_706
*1232 FILLER_0_76_718
*1233 FILLER_0_76_726
*1234 FILLER_0_77_683
*1235 FILLER_0_77_695
*1236 FILLER_0_77_707
*1237 FILLER_0_77_719
*1238 FILLER_0_78_680
*1239 FILLER_0_78_692
*1240 FILLER_0_78_704
*1241 FILLER_0_78_706
*1242 FILLER_0_78_718
*1243 FILLER_0_78_724
*1244 FILLER_0_78_727
*1245 FILLER_0_79_680
*1246 FILLER_0_79_692
*1247 FILLER_0_79_704
*1248 FILLER_0_79_716
*1249 FILLER_0_79_724
*1250 FILLER_0_7_680
*1251 FILLER_0_7_692
*1252 FILLER_0_7_704
*1253 FILLER_0_7_716
*1254 FILLER_0_7_728
*1255 FILLER_0_7_732
*1256 FILLER_0_80_680
*1257 FILLER_0_80_692
*1258 FILLER_0_80_704
*1259 FILLER_0_80_706
*1260 FILLER_0_80_718
*1261 FILLER_0_80_726
*1262 FILLER_0_81_686
*1263 FILLER_0_81_698
*1264 FILLER_0_81_710
*1265 FILLER_0_81_722
*1266 FILLER_0_81_727
*1267 FILLER_0_82_680
*1268 FILLER_0_82_692
*1269 FILLER_0_82_704
*1270 FILLER_0_82_706
*1271 FILLER_0_82_718
*1272 FILLER_0_82_726
*1273 FILLER_0_83_680
*1274 FILLER_0_83_692
*1275 FILLER_0_83_704
*1276 FILLER_0_83_716
*1277 FILLER_0_83_728
*1278 FILLER_0_84_680
*1279 FILLER_0_84_692
*1280 FILLER_0_84_704
*1281 FILLER_0_84_706
*1282 FILLER_0_84_718
*1283 FILLER_0_84_726
*1284 FILLER_0_85_680
*1285 FILLER_0_85_692
*1286 FILLER_0_85_704
*1287 FILLER_0_85_716
*1288 FILLER_0_85_728
*1289 FILLER_0_86_680
*1290 FILLER_0_86_692
*1291 FILLER_0_86_704
*1292 FILLER_0_86_706
*1293 FILLER_0_86_718
*1294 FILLER_0_86_726
*1295 FILLER_0_87_680
*1296 FILLER_0_87_692
*1297 FILLER_0_87_704
*1298 FILLER_0_87_716
*1299 FILLER_0_87_724
*1300 FILLER_0_88_680
*1301 FILLER_0_88_692
*1302 FILLER_0_88_704
*1303 FILLER_0_88_706
*1304 FILLER_0_88_718
*1305 FILLER_0_88_726
*1306 FILLER_0_89_680
*1307 FILLER_0_89_692
*1308 FILLER_0_89_704
*1309 FILLER_0_89_716
*1310 FILLER_0_89_728
*1311 FILLER_0_8_680
*1312 FILLER_0_8_692
*1313 FILLER_0_8_704
*1314 FILLER_0_8_706
*1315 FILLER_0_8_718
*1316 FILLER_0_8_730
*1317 FILLER_0_90_680
*1318 FILLER_0_90_692
*1319 FILLER_0_90_704
*1320 FILLER_0_90_706
*1321 FILLER_0_90_718
*1322 FILLER_0_90_726
*1323 FILLER_0_91_680
*1324 FILLER_0_91_692
*1325 FILLER_0_91_704
*1326 FILLER_0_91_716
*1327 FILLER_0_91_728
*1328 FILLER_0_92_680
*1329 FILLER_0_92_692
*1330 FILLER_0_92_704
*1331 FILLER_0_92_706
*1332 FILLER_0_92_718
*1333 FILLER_0_92_726
*1334 FILLER_0_93_680
*1335 FILLER_0_93_692
*1336 FILLER_0_93_704
*1337 FILLER_0_93_716
*1338 FILLER_0_93_728
*1339 FILLER_0_94_680
*1340 FILLER_0_94_692
*1341 FILLER_0_94_704
*1342 FILLER_0_94_706
*1343 FILLER_0_94_718
*1344 FILLER_0_94_726
*1345 FILLER_0_95_680
*1346 FILLER_0_95_692
*1347 FILLER_0_95_704
*1348 FILLER_0_95_716
*1349 FILLER_0_95_728
*1350 FILLER_0_96_680
*1351 FILLER_0_96_692
*1352 FILLER_0_96_704
*1353 FILLER_0_96_706
*1354 FILLER_0_96_718
*1355 FILLER_0_96_726
*1356 FILLER_0_97_680
*1357 FILLER_0_97_692
*1358 FILLER_0_97_704
*1359 FILLER_0_97_716
*1360 FILLER_0_97_728
*1361 FILLER_0_98_680
*1362 FILLER_0_98_692
*1363 FILLER_0_98_704
*1364 FILLER_0_98_706
*1365 FILLER_0_98_718
*1366 FILLER_0_98_726
*1367 FILLER_0_99_680
*1368 FILLER_0_99_692
*1369 FILLER_0_99_704
*1370 FILLER_0_99_716
*1371 FILLER_0_99_728
*1372 FILLER_0_9_680
*1373 FILLER_0_9_692
*1374 FILLER_0_9_704
*1375 FILLER_0_9_716
*1376 FILLER_0_9_728
*1377 FILLER_0_9_732
*1378 PHY_0
*1379 PHY_1
*1380 PHY_10
*1381 PHY_100
*1382 PHY_101
*1383 PHY_102
*1384 PHY_103
*1385 PHY_104
*1386 PHY_105
*1387 PHY_106
*1388 PHY_107
*1389 PHY_108
*1390 PHY_109
*1391 PHY_11
*1392 PHY_110
*1393 PHY_111
*1394 PHY_112
*1395 PHY_113
*1396 PHY_114
*1397 PHY_115
*1398 PHY_116
*1399 PHY_117
*1400 PHY_118
*1401 PHY_119
*1402 PHY_12
*1403 PHY_120
*1404 PHY_121
*1405 PHY_122
*1406 PHY_123
*1407 PHY_124
*1408 PHY_125
*1409 PHY_126
*1410 PHY_127
*1411 PHY_128
*1412 PHY_129
*1413 PHY_13
*1414 PHY_130
*1415 PHY_131
*1416 PHY_132
*1417 PHY_133
*1418 PHY_134
*1419 PHY_135
*1420 PHY_136
*1421 PHY_137
*1422 PHY_138
*1423 PHY_139
*1424 PHY_14
*1425 PHY_140
*1426 PHY_141
*1427 PHY_142
*1428 PHY_143
*1429 PHY_144
*1430 PHY_145
*1431 PHY_146
*1432 PHY_147
*1433 PHY_148
*1434 PHY_149
*1435 PHY_15
*1436 PHY_150
*1437 PHY_151
*1438 PHY_152
*1439 PHY_153
*1440 PHY_154
*1441 PHY_155
*1442 PHY_156
*1443 PHY_157
*1444 PHY_158
*1445 PHY_159
*1446 PHY_16
*1447 PHY_160
*1448 PHY_161
*1449 PHY_162
*1450 PHY_163
*1451 PHY_164
*1452 PHY_165
*1453 PHY_166
*1454 PHY_167
*1455 PHY_168
*1456 PHY_169
*1457 PHY_17
*1458 PHY_170
*1459 PHY_171
*1460 PHY_172
*1461 PHY_173
*1462 PHY_174
*1463 PHY_175
*1464 PHY_176
*1465 PHY_177
*1466 PHY_178
*1467 PHY_179
*1468 PHY_18
*1469 PHY_180
*1470 PHY_181
*1471 PHY_182
*1472 PHY_183
*1473 PHY_184
*1474 PHY_185
*1475 PHY_186
*1476 PHY_187
*1477 PHY_188
*1478 PHY_189
*1479 PHY_19
*1480 PHY_190
*1481 PHY_191
*1482 PHY_192
*1483 PHY_193
*1484 PHY_194
*1485 PHY_195
*1486 PHY_196
*1487 PHY_197
*1488 PHY_198
*1489 PHY_199
*1490 PHY_2
*1491 PHY_20
*1492 PHY_200
*1493 PHY_201
*1494 PHY_202
*1495 PHY_203
*1496 PHY_204
*1497 PHY_205
*1498 PHY_206
*1499 PHY_207
*1500 PHY_208
*1501 PHY_209
*1502 PHY_21
*1503 PHY_210
*1504 PHY_211
*1505 PHY_212
*1506 PHY_213
*1507 PHY_214
*1508 PHY_215
*1509 PHY_216
*1510 PHY_217
*1511 PHY_218
*1512 PHY_219
*1513 PHY_22
*1514 PHY_220
*1515 PHY_221
*1516 PHY_222
*1517 PHY_223
*1518 PHY_224
*1519 PHY_225
*1520 PHY_226
*1521 PHY_227
*1522 PHY_228
*1523 PHY_229
*1524 PHY_23
*1525 PHY_230
*1526 PHY_231
*1527 PHY_232
*1528 PHY_233
*1529 PHY_234
*1530 PHY_235
*1531 PHY_236
*1532 PHY_237
*1533 PHY_238
*1534 PHY_239
*1535 PHY_24
*1536 PHY_240
*1537 PHY_241
*1538 PHY_242
*1539 PHY_243
*1540 PHY_244
*1541 PHY_245
*1542 PHY_246
*1543 PHY_247
*1544 PHY_248
*1545 PHY_249
*1546 PHY_25
*1547 PHY_250
*1548 PHY_251
*1549 PHY_252
*1550 PHY_253
*1551 PHY_254
*1552 PHY_255
*1553 PHY_256
*1554 PHY_257
*1555 PHY_258
*1556 PHY_259
*1557 PHY_26
*1558 PHY_260
*1559 PHY_261
*1560 PHY_262
*1561 PHY_263
*1562 PHY_264
*1563 PHY_265
*1564 PHY_266
*1565 PHY_267
*1566 PHY_268
*1567 PHY_269
*1568 PHY_27
*1569 PHY_270
*1570 PHY_271
*1571 PHY_272
*1572 PHY_273
*1573 PHY_274
*1574 PHY_275
*1575 PHY_276
*1576 PHY_277
*1577 PHY_278
*1578 PHY_279
*1579 PHY_28
*1580 PHY_280
*1581 PHY_281
*1582 PHY_282
*1583 PHY_283
*1584 PHY_284
*1585 PHY_285
*1586 PHY_286
*1587 PHY_287
*1588 PHY_288
*1589 PHY_289
*1590 PHY_29
*1591 PHY_290
*1592 PHY_291
*1593 PHY_292
*1594 PHY_293
*1595 PHY_294
*1596 PHY_295
*1597 PHY_296
*1598 PHY_297
*1599 PHY_298
*1600 PHY_299
*1601 PHY_3
*1602 PHY_30
*1603 PHY_31
*1604 PHY_32
*1605 PHY_33
*1606 PHY_34
*1607 PHY_35
*1608 PHY_36
*1609 PHY_37
*1610 PHY_38
*1611 PHY_39
*1612 PHY_4
*1613 PHY_40
*1614 PHY_41
*1615 PHY_42
*1616 PHY_43
*1617 PHY_44
*1618 PHY_45
*1619 PHY_46
*1620 PHY_47
*1621 PHY_48
*1622 PHY_49
*1623 PHY_5
*1624 PHY_50
*1625 PHY_51
*1626 PHY_52
*1627 PHY_53
*1628 PHY_54
*1629 PHY_55
*1630 PHY_56
*1631 PHY_57
*1632 PHY_58
*1633 PHY_59
*1634 PHY_6
*1635 PHY_60
*1636 PHY_61
*1637 PHY_62
*1638 PHY_63
*1639 PHY_64
*1640 PHY_65
*1641 PHY_66
*1642 PHY_67
*1643 PHY_68
*1644 PHY_69
*1645 PHY_7
*1646 PHY_70
*1647 PHY_71
*1648 PHY_72
*1649 PHY_73
*1650 PHY_74
*1651 PHY_75
*1652 PHY_76
*1653 PHY_77
*1654 PHY_78
*1655 PHY_79
*1656 PHY_8
*1657 PHY_80
*1658 PHY_81
*1659 PHY_82
*1660 PHY_83
*1661 PHY_84
*1662 PHY_85
*1663 PHY_86
*1664 PHY_87
*1665 PHY_88
*1666 PHY_89
*1667 PHY_9
*1668 PHY_90
*1669 PHY_91
*1670 PHY_92
*1671 PHY_93
*1672 PHY_94
*1673 PHY_95
*1674 PHY_96
*1675 PHY_97
*1676 PHY_98
*1677 PHY_99
*1678 TAP_300
*1679 TAP_301
*1680 TAP_302
*1681 TAP_303
*1682 TAP_304
*1683 TAP_305
*1684 TAP_306
*1685 TAP_307
*1686 TAP_308
*1687 TAP_309
*1688 TAP_310
*1689 TAP_311
*1690 TAP_312
*1691 TAP_313
*1692 TAP_314
*1693 TAP_315
*1694 TAP_316
*1695 TAP_317
*1696 TAP_318
*1697 TAP_319
*1698 TAP_320
*1699 TAP_321
*1700 TAP_322
*1701 TAP_323
*1702 TAP_324
*1703 TAP_325
*1704 TAP_326
*1705 TAP_327
*1706 TAP_328
*1707 TAP_329
*1708 TAP_330
*1709 TAP_331
*1710 TAP_332
*1711 TAP_333
*1712 TAP_334
*1713 TAP_335
*1714 TAP_336
*1715 TAP_337
*1716 TAP_338
*1717 TAP_339
*1718 TAP_340
*1719 TAP_341
*1720 TAP_342
*1721 TAP_343
*1722 TAP_344
*1723 TAP_345
*1724 TAP_346
*1725 TAP_347
*1726 TAP_348
*1727 TAP_349
*1728 TAP_350
*1729 TAP_351
*1730 TAP_352
*1731 TAP_353
*1732 TAP_354
*1733 TAP_355
*1734 TAP_356
*1735 TAP_357
*1736 TAP_358
*1737 TAP_359
*1738 TAP_360
*1739 TAP_361
*1740 TAP_362
*1741 TAP_363
*1742 TAP_364
*1743 TAP_365
*1744 TAP_366
*1745 TAP_367
*1746 TAP_368
*1747 TAP_369
*1748 TAP_370
*1749 TAP_371
*1750 TAP_372
*1751 TAP_373
*1752 TAP_374
*1753 TAP_375
*1754 TAP_376
*1755 TAP_377
*1756 TAP_378
*1757 TAP_379
*1758 TAP_380
*1759 TAP_381
*1760 TAP_382
*1761 TAP_383
*1762 TAP_384
*1763 TAP_385
*1764 TAP_386
*1765 TAP_387
*1766 TAP_388
*1767 TAP_389
*1768 TAP_390
*1769 TAP_391
*1770 TAP_392
*1771 TAP_393
*1772 TAP_394
*1773 TAP_395
*1774 TAP_396
*1775 TAP_397
*1776 TAP_398
*1777 TAP_399
*1778 TAP_400
*1779 TAP_401
*1780 TAP_402
*1781 TAP_403
*1782 TAP_404
*1783 TAP_405
*1784 TAP_406
*1785 TAP_407
*1786 TAP_408
*1787 TAP_409
*1788 TAP_410
*1789 TAP_411
*1790 TAP_412
*1791 TAP_413
*1792 TAP_414
*1793 TAP_415
*1794 TAP_416
*1795 TAP_417
*1796 TAP_418
*1797 TAP_419
*1798 TAP_420
*1799 TAP_421
*1800 TAP_422
*1801 TAP_423
*1802 TAP_424
*1803 TAP_425
*1804 TAP_426
*1805 TAP_427
*1806 TAP_428
*1807 TAP_429
*1808 TAP_430
*1809 TAP_431
*1810 TAP_432
*1811 TAP_433
*1812 TAP_434
*1813 TAP_435
*1814 TAP_436
*1815 TAP_437
*1816 TAP_438
*1817 TAP_439
*1818 TAP_440
*1819 TAP_441
*1820 TAP_442
*1821 TAP_443
*1822 TAP_444
*1823 TAP_445
*1824 TAP_446
*1825 TAP_447
*1826 TAP_448
*1827 TAP_449
*1828 TAP_450
*1829 input1
*1830 input10
*1831 input11
*1832 input12
*1833 input13
*1834 input14
*1835 input15
*1836 input16
*1837 input17
*1838 input18
*1839 input19
*1840 input2
*1841 input20
*1842 input21
*1843 input22
*1844 input23
*1845 input24
*1846 input25
*1847 input26
*1848 input27
*1849 input28
*1850 input29
*1851 input3
*1852 input30
*1853 input31
*1854 input32
*1855 input33
*1856 input34
*1857 input35
*1858 input36
*1859 input37
*1860 input38
*1861 input39
*1862 input4
*1863 input40
*1864 input41
*1865 input42
*1866 input43
*1867 input44
*1868 input45
*1869 input46
*1870 input47
*1871 input48
*1872 input49
*1873 input5
*1874 input50
*1875 input51
*1876 input52
*1877 input53
*1878 input54
*1879 input55
*1880 input56
*1881 input57
*1882 input58
*1883 input59
*1884 input6
*1885 input60
*1886 input61
*1887 input62
*1888 input63
*1889 input64
*1890 input65
*1891 input66
*1892 input67
*1893 input68
*1894 input69
*1895 input7
*1896 input70
*1897 input71
*1898 input72
*1899 input73
*1900 input74
*1901 input75
*1902 input76
*1903 input8
*1904 input9
*1905 output100
*1906 output101
*1907 output102
*1908 output103
*1909 output104
*1910 output105
*1911 output106
*1912 output107
*1913 output108
*1914 output77
*1915 output78
*1916 output79
*1917 output80
*1918 output81
*1919 output82
*1920 output83
*1921 output84
*1922 output85
*1923 output86
*1924 output87
*1925 output88
*1926 output89
*1927 output90
*1928 output91
*1929 output92
*1930 output93
*1931 output94
*1932 output95
*1933 output96
*1934 output97
*1935 output98
*1936 output99
*1937 sram
*1938 sram_109
*1939 sram_110
*1940 sram_111
*1941 sram_112
*1942 sram_113
*1943 sram_114
*1944 sram_115
*1945 sram_116
*1946 sram_117

*PORTS
addr_i[0] I
addr_i[1] I
addr_i[2] I
addr_i[3] I
addr_i[4] I
addr_i[5] I
addr_i[6] I
addr_i[7] I
addr_i[8] I
addr_i[9] I
ben_i[0] I
ben_i[10] I
ben_i[11] I
ben_i[12] I
ben_i[13] I
ben_i[14] I
ben_i[15] I
ben_i[16] I
ben_i[17] I
ben_i[18] I
ben_i[19] I
ben_i[1] I
ben_i[20] I
ben_i[21] I
ben_i[22] I
ben_i[23] I
ben_i[24] I
ben_i[25] I
ben_i[26] I
ben_i[27] I
ben_i[28] I
ben_i[29] I
ben_i[2] I
ben_i[30] I
ben_i[31] I
ben_i[3] I
ben_i[4] I
ben_i[5] I
ben_i[6] I
ben_i[7] I
ben_i[8] I
ben_i[9] I
clk_i I
data_i[0] I
data_i[10] I
data_i[11] I
data_i[12] I
data_i[13] I
data_i[14] I
data_i[15] I
data_i[16] I
data_i[17] I
data_i[18] I
data_i[19] I
data_i[1] I
data_i[20] I
data_i[21] I
data_i[22] I
data_i[23] I
data_i[24] I
data_i[25] I
data_i[26] I
data_i[27] I
data_i[28] I
data_i[29] I
data_i[2] I
data_i[30] I
data_i[31] I
data_i[3] I
data_i[4] I
data_i[5] I
data_i[6] I
data_i[7] I
data_i[8] I
data_i[9] I
data_o[0] O
data_o[10] O
data_o[11] O
data_o[12] O
data_o[13] O
data_o[14] O
data_o[15] O
data_o[16] O
data_o[17] O
data_o[18] O
data_o[19] O
data_o[1] O
data_o[20] O
data_o[21] O
data_o[22] O
data_o[23] O
data_o[24] O
data_o[25] O
data_o[26] O
data_o[27] O
data_o[28] O
data_o[29] O
data_o[2] O
data_o[30] O
data_o[31] O
data_o[3] O
data_o[4] O
data_o[5] O
data_o[6] O
data_o[7] O
data_o[8] O
data_o[9] O
en_i I
read_en_i I

*D_NET *1 0.00103352
*CONN
*P addr_i[0] I
*I *1829:A I *D sky130_fd_sc_hd__clkbuf_4
*CAP
1 addr_i[0] 0.000334053
2 *1829:A 0.000334053
3 *1829:A *1831:A 3.84566e-05
4 *1829:A *1902:A 3.84566e-05
5 *1829:A *1937:DI[10] 0.000186553
6 *1829:A *205:9 2.94636e-05
7 *1829:A *210:11 7.24849e-05
*RES
1 addr_i[0] *1829:A 23.5655 
*END

*D_NET *2 0.00118893
*CONN
*P addr_i[1] I
*I *1840:A I *D sky130_fd_sc_hd__clkbuf_4
*CAP
1 addr_i[1] 0.0004339
2 *1840:A 0.0004339
3 *1840:A data_o[0] 0.00011813
4 *1840:A *1843:A 3.84566e-05
5 *1840:A *1878:A 0
6 *1840:A *204:19 2.92927e-05
7 *1840:A *206:17 0.000135249
*RES
1 addr_i[1] *1840:A 19.929 
*END

*D_NET *3 0.00122844
*CONN
*P addr_i[2] I
*I *1851:A I *D sky130_fd_sc_hd__clkbuf_4
*CAP
1 addr_i[2] 0.00033534
2 *1851:A 0.00033534
3 *1851:A data_o[1] 7.75542e-05
4 *1851:A *1855:A 7.43841e-05
5 *1851:A *1937:DI[8] 0.00014449
6 *1851:A *121:18 9.85927e-05
7 *1851:A *211:11 0.000162735
*RES
1 addr_i[2] *1851:A 23.2466 
*END

*D_NET *4 0.0012418
*CONN
*P addr_i[3] I
*I *1862:A I *D sky130_fd_sc_hd__clkbuf_4
*CAP
1 addr_i[3] 0.000430183
2 *1862:A 0.000430183
3 *1862:A data_o[2] 0.00010059
4 *1862:A *1858:A 7.37083e-05
5 *1862:A *191:12 6.82348e-05
6 *1862:A *206:19 0.000138903
*RES
1 addr_i[3] *1862:A 19.929 
*END

*D_NET *5 0.00110589
*CONN
*P addr_i[4] I
*I *1873:A I *D sky130_fd_sc_hd__buf_2
*CAP
1 addr_i[4] 0.000372152
2 *1873:A 0.000372152
3 *1873:A data_o[3] 2.76115e-05
4 *1873:A *1859:A 7.37083e-05
5 *1873:A *1893:A 0
6 *1873:A *164:22 4.85419e-05
7 *1873:A *174:8 4.82865e-05
8 *1873:A *211:11 0.000163442
*RES
1 addr_i[4] *1873:A 21.9787 
*END

*D_NET *6 0.00176992
*CONN
*P addr_i[5] I
*I *1884:A I *D sky130_fd_sc_hd__buf_2
*CAP
1 addr_i[5] 0.000690517
2 *1884:A 0.000690517
3 *1884:A data_o[4] 3.46191e-05
4 *1884:A *1860:A 3.07899e-05
5 *1884:A *1894:A 0
6 *1884:A *1896:A 0
7 *1884:A *138:28 0
8 *1884:A *204:19 0.000163269
9 *1884:A *206:19 0.000160202
*RES
1 addr_i[5] *1884:A 21.7338 
*END

*D_NET *7 0.00119997
*CONN
*P addr_i[6] I
*I *1895:A I *D sky130_fd_sc_hd__buf_2
*CAP
1 addr_i[6] 0.000363227
2 *1895:A 0.000363227
3 *1895:A data_o[5] 3.07899e-05
4 *1895:A *1861:A 7.37167e-05
5 *1895:A *138:28 0
6 *1895:A *185:10 0.000165494
7 *1895:A *196:8 4.00679e-05
8 *1895:A *211:11 0.000163442
*RES
1 addr_i[6] *1895:A 21.9787 
*END

*D_NET *8 0.00107121
*CONN
*P addr_i[7] I
*I *1903:A I *D sky130_fd_sc_hd__buf_2
*CAP
1 addr_i[7] 0.000409908
2 *1903:A 0.000409908
3 *1903:A data_o[6] 3.07816e-05
4 *1903:A *1863:A 3.07816e-05
5 *1903:A *196:10 4.5539e-05
6 *1903:A *207:10 9.66977e-05
7 *1903:A *210:11 4.75911e-05
*RES
1 addr_i[7] *1903:A 23.4583 
*END

*D_NET *9 0.00117403
*CONN
*P addr_i[8] I
*I *1904:A I *D sky130_fd_sc_hd__buf_2
*CAP
1 addr_i[8] 0.000346157
2 *1904:A 0.000346157
3 *1904:A data_o[7] 7.37083e-05
4 *1904:A *1864:A 3.07816e-05
5 *1904:A *1899:A 0
6 *1904:A *185:10 0.000165494
7 *1904:A *211:11 0.000163442
8 *1904:A *218:8 4.82865e-05
*RES
1 addr_i[8] *1904:A 21.9787 
*END

*D_NET *10 0.00114978
*CONN
*P addr_i[9] I
*I *1830:A I *D sky130_fd_sc_hd__buf_2
*CAP
1 addr_i[9] 0.000319239
2 *1830:A 0.000319239
3 *1830:A data_o[8] 7.75542e-05
4 *1830:A *1865:A 7.43841e-05
5 *1830:A *113:12 3.04311e-05
6 *1830:A *185:10 0.000165494
7 *1830:A *211:11 0.000163442
*RES
1 addr_i[9] *1830:A 21.9787 
*END

*D_NET *11 0.00108323
*CONN
*P ben_i[0] I
*I *1831:A I *D sky130_fd_sc_hd__buf_2
*CAP
1 ben_i[0] 0.000381601
2 *1831:A 0.000381601
3 *1831:A *1866:A 3.52949e-05
4 *1831:A *124:8 5.45307e-05
5 *1831:A *205:11 0
6 *1831:A *210:11 0.000191742
7 *1829:A *1831:A 3.84566e-05
*RES
1 ben_i[0] *1831:A 23.6369 
*END

*D_NET *12 0.00121042
*CONN
*P ben_i[10] I
*I *1832:A I *D sky130_fd_sc_hd__buf_2
*CAP
1 ben_i[10] 0.000310839
2 *1832:A 0.000310839
3 *1832:A data_o[9] 7.75542e-05
4 *1832:A *1867:A 7.75542e-05
5 *1832:A *133:8 5.07619e-05
6 *1832:A *185:10 0.000165001
7 *1832:A *204:9 5.49489e-05
8 *1832:A *211:11 0.000162918
*RES
1 ben_i[10] *1832:A 21.9787 
*END

*D_NET *13 0.00118533
*CONN
*P ben_i[11] I
*I *1833:A I *D sky130_fd_sc_hd__clkbuf_4
*CAP
1 ben_i[11] 0.000335205
2 *1833:A 0.000335205
3 *1833:A data_o[10] 3.46275e-05
4 *1833:A *1868:A 3.14573e-05
5 *1833:A *1937:AD[6] 0.000235338
6 *1833:A *134:8 2.07878e-05
7 *1833:A *196:10 9.53267e-05
8 *1833:A *205:15 0
9 *1833:A *210:11 9.73787e-05
*RES
1 ben_i[11] *1833:A 24.1726 
*END

*D_NET *14 0.00108419
*CONN
*P ben_i[12] I
*I *1834:A I *D sky130_fd_sc_hd__clkbuf_4
*CAP
1 ben_i[12] 0.000376122
2 *1834:A 0.000376122
3 *1834:A data_o[11] 0.000118147
4 *1834:A *1869:A 0.000145739
5 *1834:A *137:10 6.8057e-05
6 *1834:A *211:11 0
*RES
1 ben_i[12] *1834:A 19.929 
*END

*D_NET *15 0.00116198
*CONN
*P ben_i[13] I
*I *1835:A I *D sky130_fd_sc_hd__clkbuf_4
*CAP
1 ben_i[13] 0.000394926
2 *1835:A 0.000394926
3 *1835:A data_o[12] 8.52292e-05
4 *1835:A *1870:A 8.52292e-05
5 *1835:A *136:8 1.28171e-05
6 *1835:A *171:14 0
7 *1835:A *211:11 0.000188847
*RES
1 ben_i[13] *1835:A 23.1216 
*END

*D_NET *16 0.000942286
*CONN
*P ben_i[14] I
*I *1836:A I *D sky130_fd_sc_hd__clkbuf_4
*CAP
1 ben_i[14] 0.000365615
2 *1836:A 0.000365615
3 *1836:A data_o[13] 3.84566e-05
4 *1836:A *1871:A 3.84566e-05
5 *1836:A *137:8 5.65955e-05
6 *1836:A *138:10 0
7 *1836:A *210:19 7.75477e-05
*RES
1 ben_i[14] *1836:A 23.4405 
*END

*D_NET *17 0.00125734
*CONN
*P ben_i[15] I
*I *1837:A I *D sky130_fd_sc_hd__clkbuf_4
*CAP
1 ben_i[15] 0.000374695
2 *1837:A 0.000374695
3 *1837:A data_o[14] 0.000121967
4 *1837:A *1872:A 0.000292585
5 *1837:A *1921:A 0
6 *1837:A *172:14 7.00569e-06
7 *1837:A *175:20 8.63936e-05
*RES
1 ben_i[15] *1837:A 20.5361 
*END

*D_NET *18 0.000902351
*CONN
*P ben_i[16] I
*I *1838:A I *D sky130_fd_sc_hd__buf_2
*CAP
1 ben_i[16] 0.000348217
2 *1838:A 0.000348217
3 *1838:A data_o[15] 7.61181e-05
4 *1838:A *1874:A 7.77327e-05
5 *1838:A *139:12 5.20669e-05
*RES
1 ben_i[16] *1838:A 22.4424 
*END

*D_NET *19 0.000870936
*CONN
*P ben_i[17] I
*I *1839:A I *D sky130_fd_sc_hd__clkbuf_2
*CAP
1 ben_i[17] 0.000371863
2 *1839:A 0.000371863
3 *1839:A data_o[16] 5.20644e-05
4 *1839:A *1875:A 6.02923e-05
5 *1839:A *140:12 1.48543e-05
*RES
1 ben_i[17] *1839:A 23.1911 
*END

*D_NET *20 0.000894396
*CONN
*P ben_i[18] I
*I *1841:A I *D sky130_fd_sc_hd__clkbuf_2
*CAP
1 ben_i[18] 0.000276305
2 *1841:A 0.000276305
3 *1841:A data_o[17] 7.92798e-05
4 *1841:A *1876:A 7.61181e-05
5 *1841:A *1937:BEN[18] 0.000186387
*RES
1 ben_i[18] *1841:A 21.6031 
*END

*D_NET *21 0.000913531
*CONN
*P ben_i[19] I
*I *1842:A I *D sky130_fd_sc_hd__clkbuf_2
*CAP
1 ben_i[19] 0.000377984
2 *1842:A 0.000377984
3 *1842:A data_o[18] 5.20644e-05
4 *1842:A *1877:A 4.89026e-05
5 *1842:A *1937:BEN[19] 5.65955e-05
*RES
1 ben_i[19] *1842:A 23.3161 
*END

*D_NET *22 0.00107383
*CONN
*P ben_i[1] I
*I *1843:A I *D sky130_fd_sc_hd__buf_2
*CAP
1 ben_i[1] 0.000386892
2 *1843:A 0.000386892
3 *1843:A *1878:A 3.46275e-05
4 *1843:A *122:12 0
5 *1843:A *144:8 3.42509e-05
6 *1843:A *201:22 9.53267e-05
7 *1843:A *210:11 9.73787e-05
8 *1840:A *1843:A 3.84566e-05
*RES
1 ben_i[1] *1843:A 23.7619 
*END

*D_NET *23 0.000761687
*CONN
*P ben_i[20] I
*I *1844:A I *D sky130_fd_sc_hd__clkbuf_2
*CAP
1 ben_i[20] 0.00033496
2 *1844:A 0.00033496
3 *1844:A data_o[19] 3.84566e-05
4 *1844:A *1879:A 3.84566e-05
5 *1844:A *145:12 1.48543e-05
*RES
1 ben_i[20] *1844:A 22.619 
*END

*D_NET *24 0.00214701
*CONN
*P ben_i[21] I
*I *1845:A I *D sky130_fd_sc_hd__clkbuf_2
*CAP
1 ben_i[21] 0.000889431
2 *1845:A 0.000889431
3 *1845:A data_o[20] 0.000125805
4 *1845:A data_o[21] 0
5 *1845:A *1880:A 5.20644e-05
6 *1845:A *146:12 0.00019028
*RES
1 ben_i[21] *1845:A 26.0042 
*END

*D_NET *25 0.000774271
*CONN
*P ben_i[22] I
*I *1846:A I *D sky130_fd_sc_hd__clkbuf_2
*CAP
1 ben_i[22] 0.000329225
2 *1846:A 0.000329225
3 *1846:A data_o[21] 5.20644e-05
4 *1846:A *1881:A 4.89026e-05
5 *1846:A *147:12 1.48543e-05
*RES
1 ben_i[22] *1846:A 22.4054 
*END

*D_NET *26 0.000889289
*CONN
*P ben_i[23] I
*I *1847:A I *D sky130_fd_sc_hd__clkbuf_2
*CAP
1 ben_i[23] 0.000364282
2 *1847:A 0.000364282
3 *1847:A data_o[22] 5.20644e-05
4 *1847:A *1882:A 5.20644e-05
5 *1847:A *148:12 5.65955e-05
*RES
1 ben_i[23] *1847:A 23.3161 
*END

*D_NET *27 0.000787555
*CONN
*P ben_i[24] I
*I *1848:A I *D sky130_fd_sc_hd__clkbuf_2
*CAP
1 ben_i[24] 0.00030707
2 *1848:A 0.00030707
3 *1848:A data_o[23] 7.92798e-05
4 *1848:A *1883:A 7.92798e-05
5 *1848:A *149:12 1.48543e-05
*RES
1 ben_i[24] *1848:A 21.6031 
*END

*D_NET *28 0.000926411
*CONN
*P ben_i[25] I
*I *1849:A I *D sky130_fd_sc_hd__buf_2
*CAP
1 ben_i[25] 0.000357977
2 *1849:A 0.000357977
3 *1849:A data_o[24] 7.61181e-05
4 *1849:A *1885:A 7.61181e-05
5 *1849:A *150:12 5.45307e-05
6 *1849:A *222:17 3.69047e-06
*RES
1 ben_i[25] *1849:A 22.7459 
*END

*D_NET *29 0.000960016
*CONN
*P ben_i[26] I
*I *1850:A I *D sky130_fd_sc_hd__buf_2
*CAP
1 ben_i[26] 0.000388048
2 *1850:A 0.000388048
3 *1850:A data_o[25] 7.92798e-05
4 *1850:A data_o[26] 0
5 *1850:A *1886:A 5.20644e-05
6 *1850:A *149:12 0
7 *1850:A *151:12 5.25759e-05
*RES
1 ben_i[26] *1850:A 22.3174 
*END

*D_NET *30 0.00196353
*CONN
*P ben_i[27] I
*I *1852:A I *D sky130_fd_sc_hd__buf_2
*CAP
1 ben_i[27] 0.000805521
2 *1852:A 0.000805521
3 *1852:A data_o[26] 0.000123607
4 *1852:A *1887:A 7.92798e-05
5 *1852:A *1937:BEN[25] 5.03772e-05
6 *1852:A *150:12 9.92292e-05
*RES
1 ben_i[27] *1852:A 23.9685 
*END

*D_NET *31 0.0008839
*CONN
*P ben_i[28] I
*I *1853:A I *D sky130_fd_sc_hd__buf_2
*CAP
1 ben_i[28] 0.000378326
2 *1853:A 0.000378326
3 *1853:A data_o[27] 3.84566e-05
4 *1853:A *1887:A 0
5 *1853:A *1888:A 5.20644e-05
6 *1853:A *154:12 3.67257e-05
*RES
1 ben_i[28] *1853:A 23.1197 
*END

*D_NET *32 0.000989769
*CONN
*P ben_i[29] I
*I *1854:A I *D sky130_fd_sc_hd__buf_2
*CAP
1 ben_i[29] 0.000348099
2 *1854:A 0.000348099
3 *1854:A data_o[28] 7.61181e-05
4 *1854:A *1889:A 7.61181e-05
5 *1854:A *1937:DI[27] 4.82865e-05
6 *1854:A *154:12 6.27457e-05
7 *1854:A *155:8 2.42516e-05
8 *1854:A *225:15 6.05161e-06
*RES
1 ben_i[29] *1854:A 22.7459 
*END

*D_NET *33 0.00114608
*CONN
*P ben_i[2] I
*I *1855:A I *D sky130_fd_sc_hd__buf_2
*CAP
1 ben_i[2] 0.000369783
2 *1855:A 0.000369783
3 *1855:A data_o[2] 0
4 *1855:A *1890:A 3.07816e-05
5 *1855:A *121:18 7.92879e-05
6 *1855:A *156:8 3.42509e-05
7 *1855:A *211:11 0.000187812
8 *1851:A *1855:A 7.43841e-05
*RES
1 ben_i[2] *1855:A 22.2823 
*END

*D_NET *34 0.000936644
*CONN
*P ben_i[30] I
*I *1856:A I *D sky130_fd_sc_hd__buf_2
*CAP
1 ben_i[30] 0.000332643
2 *1856:A 0.000332643
3 *1856:A data_o[29] 4.89026e-05
4 *1856:A *1889:A 0
5 *1856:A *1891:A 7.92798e-05
6 *1856:A *154:12 8.86454e-05
7 *1856:A *157:8 5.45307e-05
*RES
1 ben_i[30] *1856:A 22.3174 
*END

*D_NET *35 0.000941013
*CONN
*P ben_i[31] I
*I *1857:A I *D sky130_fd_sc_hd__buf_2
*CAP
1 ben_i[31] 0.00028579
2 *1857:A 0.00028579
3 *1857:A data_o[30] 7.77327e-05
4 *1857:A data_o[31] 0
5 *1857:A *1892:A 5.20644e-05
6 *1857:A *1937:BEN[28] 0.000100163
7 *1857:A *154:12 0.000102748
8 *1857:A *158:8 3.67252e-05
*RES
1 ben_i[31] *1857:A 22.6209 
*END

*D_NET *36 0.00117858
*CONN
*P ben_i[3] I
*I *1858:A I *D sky130_fd_sc_hd__buf_2
*CAP
1 ben_i[3] 0.000364791
2 *1858:A 0.000364791
3 *1858:A *1893:A 7.05382e-05
4 *1858:A *121:24 7.19623e-05
5 *1858:A *164:22 0.000117421
6 *1858:A *211:11 0.000115369
7 *1862:A *1858:A 7.37083e-05
*RES
1 ben_i[3] *1858:A 22.4073 
*END

*D_NET *37 0.00111972
*CONN
*P ben_i[4] I
*I *1859:A I *D sky130_fd_sc_hd__buf_2
*CAP
1 ben_i[4] 0.000348803
2 *1859:A 0.000348803
3 *1859:A *1894:A 7.37083e-05
4 *1859:A *160:12 3.04311e-05
5 *1859:A *164:22 5.70045e-05
6 *1859:A *211:11 0.000187261
7 *1873:A *1859:A 7.37083e-05
*RES
1 ben_i[4] *1859:A 22.2823 
*END

*D_NET *38 0.00121555
*CONN
*P ben_i[5] I
*I *1860:A I *D sky130_fd_sc_hd__clkbuf_2
*CAP
1 ben_i[5] 0.000375852
2 *1860:A 0.000375852
3 *1860:A *1896:A 3.07899e-05
4 *1860:A *122:24 0.000193698
5 *1860:A *161:12 1.28171e-05
6 *1860:A *210:11 0.00019575
7 *1884:A *1860:A 3.07899e-05
*RES
1 ben_i[5] *1860:A 23.6547 
*END

*D_NET *39 0.00128633
*CONN
*P ben_i[6] I
*I *1861:A I *D sky130_fd_sc_hd__buf_2
*CAP
1 ben_i[6] 0.000406883
2 *1861:A 0.000406883
3 *1861:A *1897:A 7.28369e-05
4 *1861:A *162:10 4.82947e-05
5 *1861:A *185:10 0.000139886
6 *1861:A *211:11 0.000137834
7 *1895:A *1861:A 7.37167e-05
*RES
1 ben_i[6] *1861:A 22.4073 
*END

*D_NET *40 0.00120194
*CONN
*P ben_i[7] I
*I *1863:A I *D sky130_fd_sc_hd__buf_2
*CAP
1 ben_i[7] 0.000426009
2 *1863:A 0.000426009
3 *1863:A data_o[6] 0
4 *1863:A *1898:A 7.05382e-05
5 *1863:A *185:10 0.000117421
6 *1863:A *204:17 1.58163e-05
7 *1863:A *211:11 0.000115369
8 *1903:A *1863:A 3.07816e-05
*RES
1 ben_i[7] *1863:A 22.4073 
*END

*D_NET *41 0.00107759
*CONN
*P ben_i[8] I
*I *1864:A I *D sky130_fd_sc_hd__buf_2
*CAP
1 ben_i[8] 0.000416946
2 *1864:A 0.000416946
3 *1864:A *1899:A 3.07816e-05
4 *1864:A *165:10 2.969e-05
5 *1864:A *196:10 7.04329e-05
6 *1864:A *200:14 9.53247e-06
7 *1864:A *210:11 7.24849e-05
8 *1904:A *1864:A 3.07816e-05
*RES
1 ben_i[8] *1864:A 23.7619 
*END

*D_NET *42 0.00127782
*CONN
*P ben_i[9] I
*I *1865:A I *D sky130_fd_sc_hd__buf_2
*CAP
1 ben_i[9] 0.00037758
2 *1865:A 0.00037758
3 *1865:A *1900:A 4.41199e-05
4 *1865:A *166:10 4.77351e-05
5 *1865:A *185:10 0.000179238
6 *1865:A *211:11 0.00017718
7 *1830:A *1865:A 7.43841e-05
*RES
1 ben_i[9] *1865:A 22.2823 
*END

*D_NET *43 0.0297878
*CONN
*P clk_i I
*I *1937:CLKin I *D CF_SRAM_1024x32
*CAP
1 clk_i 0.0014744
2 *1937:CLKin 0.000983327
3 *43:13 0.00625318
4 *43:11 0.00674425
5 *1937:CLKin *1937:DI[17] 0.000551946
6 *43:11 *1901:A 0.000196287
7 *43:11 *202:18 0
8 *43:13 *134:10 0.0057431
9 *43:13 *136:10 0.0024514
10 *43:13 *137:18 0.00538993
11 *43:13 *144:10 0
*RES
1 clk_i *43:11 6.55273 
2 *43:11 *43:13 150.241 
3 *43:13 *1937:CLKin 24.8036 
*END

*D_NET *44 0.00103915
*CONN
*P data_i[0] I
*I *1866:A I *D sky130_fd_sc_hd__buf_2
*CAP
1 data_i[0] 0.000354431
2 *1866:A 0.000354431
3 *1866:A data_o[0] 7.75458e-05
4 *1866:A *167:8 5.45307e-05
5 *1866:A *211:11 0.000162918
6 *1831:A *1866:A 3.52949e-05
*RES
1 data_i[0] *1866:A 21.9787 
*END

*D_NET *45 0.00118744
*CONN
*P data_i[10] I
*I *1867:A I *D sky130_fd_sc_hd__buf_2
*CAP
1 data_i[10] 0.000307962
2 *1867:A 0.000307962
3 *1867:A data_o[10] 7.43841e-05
4 *1867:A *168:8 4.78664e-05
5 *1867:A *185:10 0.000186884
6 *1867:A *211:11 0.000184832
7 *1832:A *1867:A 7.75542e-05
*RES
1 data_i[10] *1867:A 22.2823 
*END

*D_NET *46 0.00117153
*CONN
*P data_i[11] I
*I *1868:A I *D sky130_fd_sc_hd__buf_2
*CAP
1 data_i[11] 0.000341314
2 *1868:A 0.000341314
3 *1868:A data_o[10] 0
4 *1868:A data_o[11] 7.98529e-05
5 *1868:A *169:8 5.45307e-05
6 *1868:A *185:10 0.000162572
7 *1868:A *211:11 0.000160489
8 *1833:A *1868:A 3.14573e-05
*RES
1 data_i[11] *1868:A 21.9787 
*END

*D_NET *47 0.00106214
*CONN
*P data_i[12] I
*I *1869:A I *D sky130_fd_sc_hd__clkbuf_4
*CAP
1 data_i[12] 0.000354888
2 *1869:A 0.000354888
3 *1869:A data_o[12] 0.000112445
4 *1869:A *137:10 9.41758e-05
5 *1869:A *211:11 0
6 *1834:A *1869:A 0.000145739
*RES
1 data_i[12] *1869:A 20.5361 
*END

*D_NET *48 0.0011313
*CONN
*P data_i[13] I
*I *1870:A I *D sky130_fd_sc_hd__clkbuf_4
*CAP
1 data_i[13] 0.000407373
2 *1870:A 0.000407373
3 *1870:A data_o[12] 0
4 *1870:A data_o[13] 4.89026e-05
5 *1870:A *137:10 7.10834e-05
6 *1870:A *171:14 0.000111339
7 *1835:A *1870:A 8.52292e-05
*RES
1 data_i[13] *1870:A 19.929 
*END

*D_NET *49 0.00119929
*CONN
*P data_i[14] I
*I *1871:A I *D sky130_fd_sc_hd__clkbuf_4
*CAP
1 data_i[14] 0.000505201
2 *1871:A 0.000505201
3 *1871:A data_o[13] 0
4 *1871:A data_o[14] 0.000121967
5 *1871:A *172:14 2.84633e-05
6 *1871:A *211:11 0
7 *1836:A *1871:A 3.84566e-05
*RES
1 data_i[14] *1871:A 20.6611 
*END

*D_NET *50 0.00266579
*CONN
*P data_i[15] I
*I *1872:A I *D sky130_fd_sc_hd__clkbuf_4
*CAP
1 data_i[15] 0.00112082
2 *1872:A 0.00112082
3 *1872:A data_o[15] 3.16528e-05
4 *1872:A *1921:A 9.99177e-05
5 *1872:A *172:14 0
6 *1837:A *1872:A 0.000292585
*RES
1 data_i[15] *1872:A 24.472 
*END

*D_NET *51 0.000840499
*CONN
*P data_i[16] I
*I *1874:A I *D sky130_fd_sc_hd__clkbuf_2
*CAP
1 data_i[16] 0.000341743
2 *1874:A 0.000341743
3 *1874:A data_o[16] 7.92798e-05
4 *1838:A *1874:A 7.77327e-05
*RES
1 data_i[16] *1874:A 22.2102 
*END

*D_NET *52 0.000869787
*CONN
*P data_i[17] I
*I *1875:A I *D sky130_fd_sc_hd__clkbuf_2
*CAP
1 data_i[17] 0.000340305
2 *1875:A 0.000340305
3 *1875:A data_o[16] 0
4 *1875:A data_o[17] 7.22889e-05
5 *1875:A *176:12 5.65955e-05
6 *1839:A *1875:A 6.02923e-05
*RES
1 data_i[17] *1875:A 21.6031 
*END

*D_NET *53 0.000840587
*CONN
*P data_i[18] I
*I *1876:A I *D sky130_fd_sc_hd__clkbuf_2
*CAP
1 data_i[18] 0.000345808
2 *1876:A 0.000345808
3 *1876:A data_o[18] 5.20644e-05
4 *1876:A *177:12 2.07878e-05
5 *1841:A *1876:A 7.61181e-05
*RES
1 data_i[18] *1876:A 22.2102 
*END

*D_NET *54 0.000906815
*CONN
*P data_i[19] I
*I *1877:A I *D sky130_fd_sc_hd__clkbuf_2
*CAP
1 data_i[19] 0.0003411
2 *1877:A 0.0003411
3 *1877:A data_o[19] 7.54507e-05
4 *1877:A *178:12 0.000100262
5 *1842:A *1877:A 4.89026e-05
*RES
1 data_i[19] *1877:A 21.6031 
*END

*D_NET *55 0.00104592
*CONN
*P data_i[1] I
*I *1878:A I *D sky130_fd_sc_hd__buf_2
*CAP
1 data_i[1] 0.000370645
2 *1878:A 0.000370645
3 *1878:A data_o[1] 7.28369e-05
4 *1878:A *179:10 3.42509e-05
5 *1878:A *211:11 0.000162918
6 *1840:A *1878:A 0
7 *1843:A *1878:A 3.46275e-05
*RES
1 data_i[1] *1878:A 21.9787 
*END

*D_NET *56 0.000953704
*CONN
*P data_i[20] I
*I *1879:A I *D sky130_fd_sc_hd__clkbuf_2
*CAP
1 data_i[20] 0.000412138
2 *1879:A 0.000412138
3 *1879:A data_o[19] 0
4 *1879:A data_o[20] 7.61181e-05
5 *1879:A *180:12 1.48543e-05
6 *1844:A *1879:A 3.84566e-05
*RES
1 data_i[20] *1879:A 22.5138 
*END

*D_NET *57 0.000803291
*CONN
*P data_i[21] I
*I *1880:A I *D sky130_fd_sc_hd__clkbuf_2
*CAP
1 data_i[21] 0.000323114
2 *1880:A 0.000323114
3 *1880:A data_o[21] 4.89026e-05
4 *1880:A *1937:DI[21] 5.60962e-05
5 *1845:A *1880:A 5.20644e-05
*RES
1 data_i[21] *1880:A 22.2804 
*END

*D_NET *58 0.000882815
*CONN
*P data_i[22] I
*I *1881:A I *D sky130_fd_sc_hd__clkbuf_2
*CAP
1 data_i[22] 0.000361883
2 *1881:A 0.000361883
3 *1881:A data_o[21] 0
4 *1881:A data_o[22] 7.92798e-05
5 *1881:A *1937:DI[22] 3.08664e-05
6 *1846:A *1881:A 4.89026e-05
*RES
1 data_i[22] *1881:A 22.2102 
*END

*D_NET *59 0.000865263
*CONN
*P data_i[23] I
*I *1882:A I *D sky130_fd_sc_hd__clkbuf_2
*CAP
1 data_i[23] 0.000361447
2 *1882:A 0.000361447
3 *1882:A data_o[22] 0
4 *1882:A data_o[23] 7.54507e-05
5 *1882:A *183:12 1.48543e-05
6 *1847:A *1882:A 5.20644e-05
*RES
1 data_i[23] *1882:A 21.6031 
*END

*D_NET *60 0.000976122
*CONN
*P data_i[24] I
*I *1883:A I *D sky130_fd_sc_hd__clkbuf_2
*CAP
1 data_i[24] 0.000360231
2 *1883:A 0.000360231
3 *1883:A data_o[24] 7.61181e-05
4 *1883:A *184:12 0.000100262
5 *1848:A *1883:A 7.92798e-05
*RES
1 data_i[24] *1883:A 22.5138 
*END

*D_NET *61 0.000817864
*CONN
*P data_i[25] I
*I *1885:A I *D sky130_fd_sc_hd__clkbuf_2
*CAP
1 data_i[25] 0.000324579
2 *1885:A 0.000324579
3 *1885:A data_o[25] 7.77327e-05
4 *1885:A *186:12 1.48543e-05
5 *1849:A *1885:A 7.61181e-05
*RES
1 data_i[25] *1885:A 21.7281 
*END

*D_NET *62 0.000805539
*CONN
*P data_i[26] I
*I *1886:A I *D sky130_fd_sc_hd__clkbuf_2
*CAP
1 data_i[26] 0.000335272
2 *1886:A 0.000335272
3 *1886:A data_o[26] 5.20644e-05
4 *1886:A *187:12 3.08664e-05
5 *1850:A *1886:A 5.20644e-05
*RES
1 data_i[26] *1886:A 22.8875 
*END

*D_NET *63 0.000837857
*CONN
*P data_i[27] I
*I *1887:A I *D sky130_fd_sc_hd__clkbuf_2
*CAP
1 data_i[27] 0.00036006
2 *1887:A 0.00036006
3 *1887:A data_o[27] 3.84566e-05
4 *1887:A *153:12 0
5 *1852:A *1887:A 7.92798e-05
6 *1853:A *1887:A 0
*RES
1 data_i[27] *1887:A 21.6031 
*END

*D_NET *64 0.00101421
*CONN
*P data_i[28] I
*I *1888:A I *D sky130_fd_sc_hd__buf_2
*CAP
1 data_i[28] 0.000381303
2 *1888:A 0.000381303
3 *1888:A data_o[28] 7.61181e-05
4 *1888:A *154:12 7.75985e-05
5 *1888:A *189:12 4.58194e-05
6 *1853:A *1888:A 5.20644e-05
*RES
1 data_i[28] *1888:A 22.6209 
*END

*D_NET *65 0.000913582
*CONN
*P data_i[29] I
*I *1889:A I *D sky130_fd_sc_hd__buf_2
*CAP
1 data_i[29] 0.000332245
2 *1889:A 0.000332245
3 *1889:A data_o[29] 5.20644e-05
4 *1889:A *154:12 8.79824e-05
5 *1889:A *190:12 3.29284e-05
6 *1854:A *1889:A 7.61181e-05
7 *1856:A *1889:A 0
*RES
1 data_i[29] *1889:A 22.3174 
*END

*D_NET *66 0.00107957
*CONN
*P data_i[2] I
*I *1890:A I *D sky130_fd_sc_hd__buf_2
*CAP
1 data_i[2] 0.000355679
2 *1890:A 0.000355679
3 *1890:A data_o[2] 3.07816e-05
4 *1890:A *1937:BEN[7] 9.31595e-05
5 *1890:A *191:12 2.07878e-05
6 *1890:A *201:22 9.53267e-05
7 *1890:A *210:11 9.73787e-05
8 *1855:A *1890:A 3.07816e-05
*RES
1 data_i[2] *1890:A 23.4583 
*END

*D_NET *67 0.000935493
*CONN
*P data_i[30] I
*I *1891:A I *D sky130_fd_sc_hd__buf_2
*CAP
1 data_i[30] 0.000315725
2 *1891:A 0.000315725
3 *1891:A data_o[30] 7.92798e-05
4 *1891:A *154:12 9.09514e-05
5 *1891:A *192:12 5.45307e-05
6 *1856:A *1891:A 7.92798e-05
*RES
1 data_i[30] *1891:A 22.7459 
*END

*D_NET *68 0.0008452
*CONN
*P data_i[31] I
*I *1892:A I *D sky130_fd_sc_hd__buf_2
*CAP
1 data_i[31] 0.000353754
2 *1892:A 0.000353754
3 *1892:A data_o[31] 4.89026e-05
4 *1892:A *154:12 0
5 *1892:A *193:12 3.67252e-05
6 *1857:A *1892:A 5.20644e-05
*RES
1 data_i[31] *1892:A 23.1197 
*END

*D_NET *69 0.00116538
*CONN
*P data_i[3] I
*I *1893:A I *D sky130_fd_sc_hd__buf_2
*CAP
1 data_i[3] 0.000368249
2 *1893:A 0.000368249
3 *1893:A data_o[3] 3.07816e-05
4 *1893:A *164:22 0.000119205
5 *1893:A *194:8 4.82865e-05
6 *1893:A *211:11 0.000160069
7 *1858:A *1893:A 7.05382e-05
8 *1873:A *1893:A 0
*RES
1 data_i[3] *1893:A 21.9787 
*END

*D_NET *70 0.00107205
*CONN
*P data_i[4] I
*I *1894:A I *D sky130_fd_sc_hd__clkbuf_2
*CAP
1 data_i[4] 0.000374608
2 *1894:A 0.000374608
3 *1894:A data_o[4] 3.07816e-05
4 *1894:A *164:22 0.00011302
5 *1894:A *195:12 5.33005e-05
6 *1894:A *201:18 1.33343e-05
7 *1894:A *211:11 3.86844e-05
8 *1859:A *1894:A 7.37083e-05
9 *1884:A *1894:A 0
*RES
1 data_i[4] *1894:A 20.7121 
*END

*D_NET *71 0.00118861
*CONN
*P data_i[5] I
*I *1896:A I *D sky130_fd_sc_hd__clkbuf_2
*CAP
1 data_i[5] 0.000340778
2 *1896:A 0.000340778
3 *1896:A *138:28 0.00015347
4 *1896:A *185:10 0.000134893
5 *1896:A *197:14 5.49489e-05
6 *1896:A *211:11 0.000132954
7 *1860:A *1896:A 3.07899e-05
8 *1884:A *1896:A 0
*RES
1 data_i[5] *1896:A 21.2644 
*END

*D_NET *72 0.00118715
*CONN
*P data_i[6] I
*I *1897:A I *D sky130_fd_sc_hd__buf_2
*CAP
1 data_i[6] 0.000332969
2 *1897:A 0.000332969
3 *1897:A data_o[6] 7.21611e-05
4 *1897:A *185:10 0.000165001
5 *1897:A *198:14 4.82947e-05
6 *1897:A *211:11 0.000162918
7 *1861:A *1897:A 7.28369e-05
*RES
1 data_i[6] *1897:A 21.9787 
*END

*D_NET *73 0.00120017
*CONN
*P data_i[7] I
*I *1898:A I *D sky130_fd_sc_hd__buf_2
*CAP
1 data_i[7] 0.000340628
2 *1898:A 0.000340628
3 *1898:A data_o[7] 7.21611e-05
4 *1898:A *185:10 0.000165001
5 *1898:A *199:12 4.82947e-05
6 *1898:A *211:11 0.000162918
7 *1863:A *1898:A 7.05382e-05
*RES
1 data_i[7] *1898:A 21.9787 
*END

*D_NET *74 0.00124347
*CONN
*P data_i[8] I
*I *1899:A I *D sky130_fd_sc_hd__buf_2
*CAP
1 data_i[8] 0.000375189
2 *1899:A 0.000375189
3 *1899:A data_o[8] 6.8991e-05
4 *1899:A *185:10 0.000162572
5 *1899:A *200:14 7.02611e-05
6 *1899:A *211:11 0.000160489
7 *1864:A *1899:A 3.07816e-05
8 *1904:A *1899:A 0
*RES
1 data_i[8] *1899:A 21.9787 
*END

*D_NET *75 0.00246155
*CONN
*P data_i[9] I
*I *1900:A I *D sky130_fd_sc_hd__buf_2
*CAP
1 data_i[9] 0.0010547
2 *1900:A 0.0010547
3 *1900:A data_o[9] 0.000142877
4 *1900:A *124:10 3.22243e-05
5 *1900:A *133:10 1.91512e-05
6 *1900:A *209:11 0.000113776
7 *1865:A *1900:A 4.41199e-05
*RES
1 data_i[9] *1900:A 23.2583 
*END

*D_NET *76 0.000792157
*CONN
*P data_o[0] O
*I *1914:X O *D sky130_fd_sc_hd__buf_2
*CAP
1 data_o[0] 0.000269229
2 *1914:X 0.000269229
3 data_o[0] *206:17 5.8024e-05
4 data_o[0] *211:11 0
5 *1840:A data_o[0] 0.00011813
6 *1866:A data_o[0] 7.75458e-05
*RES
1 *1914:X data_o[0] 19.4092 
*END

*D_NET *77 0.000859671
*CONN
*P data_o[10] O
*I *1915:X O *D sky130_fd_sc_hd__buf_2
*CAP
1 data_o[10] 0.000329647
2 *1915:X 0.000329647
3 data_o[10] *113:12 3.61908e-05
4 data_o[10] *185:10 5.51753e-05
5 *1833:A data_o[10] 3.46275e-05
6 *1867:A data_o[10] 7.43841e-05
7 *1868:A data_o[10] 0
*RES
1 *1915:X data_o[10] 19.4092 
*END

*D_NET *78 0.000799799
*CONN
*P data_o[11] O
*I *1916:X O *D sky130_fd_sc_hd__buf_2
*CAP
1 data_o[11] 0.000273018
2 *1916:X 0.000273018
3 data_o[11] *185:10 5.57632e-05
4 *1834:A data_o[11] 0.000118147
5 *1868:A data_o[11] 7.98529e-05
*RES
1 *1916:X data_o[11] 19.4092 
*END

*D_NET *79 0.000751973
*CONN
*P data_o[12] O
*I *1917:X O *D sky130_fd_sc_hd__clkbuf_4
*CAP
1 data_o[12] 0.000255796
2 *1917:X 0.000255796
3 data_o[12] *137:10 0
4 data_o[12] *171:14 5.7903e-06
5 data_o[12] *211:11 3.69178e-05
6 *1835:A data_o[12] 8.52292e-05
7 *1869:A data_o[12] 0.000112445
8 *1870:A data_o[12] 0
*RES
1 *1917:X data_o[12] 19.8729 
*END

*D_NET *80 0.000841116
*CONN
*P data_o[13] O
*I *1918:X O *D sky130_fd_sc_hd__clkbuf_4
*CAP
1 data_o[13] 0.000353083
2 *1918:X 0.000353083
3 data_o[13] *138:10 0
4 data_o[13] *210:19 4.75911e-05
5 *1836:A data_o[13] 3.84566e-05
6 *1870:A data_o[13] 4.89026e-05
7 *1871:A data_o[13] 0
*RES
1 *1918:X data_o[13] 21.6911 
*END

*D_NET *81 0.00073845
*CONN
*P data_o[14] O
*I *1919:X O *D sky130_fd_sc_hd__buf_2
*CAP
1 data_o[14] 0.000242241
2 *1919:X 0.000242241
3 data_o[14] *175:20 1.00332e-05
4 data_o[14] *211:11 0
5 *1837:A data_o[14] 0.000121967
6 *1871:A data_o[14] 0.000121967
*RES
1 *1919:X data_o[14] 19.4092 
*END

*D_NET *82 0.000806565
*CONN
*P data_o[15] O
*I *1920:X O *D sky130_fd_sc_hd__buf_2
*CAP
1 data_o[15] 0.000291866
2 *1920:X 0.000291866
3 data_o[15] *175:20 0.000115063
4 data_o[15] *211:11 0
5 *1838:A data_o[15] 7.61181e-05
6 *1872:A data_o[15] 3.16528e-05
*RES
1 *1920:X data_o[15] 19.4092 
*END

*D_NET *83 0.000726352
*CONN
*P data_o[16] O
*I *1921:X O *D sky130_fd_sc_hd__buf_2
*CAP
1 data_o[16] 0.000297504
2 *1921:X 0.000297504
3 *1839:A data_o[16] 5.20644e-05
4 *1874:A data_o[16] 7.92798e-05
5 *1875:A data_o[16] 0
*RES
1 *1921:X data_o[16] 19.4092 
*END

*D_NET *84 0.000811829
*CONN
*P data_o[17] O
*I *1922:X O *D sky130_fd_sc_hd__clkbuf_4
*CAP
1 data_o[17] 0.000320977
2 *1922:X 0.000320977
3 data_o[17] *1937:BEN[18] 1.83053e-05
4 *1841:A data_o[17] 7.92798e-05
5 *1875:A data_o[17] 7.22889e-05
*RES
1 *1922:X data_o[17] 20.48 
*END

*D_NET *85 0.000761593
*CONN
*P data_o[18] O
*I *1923:X O *D sky130_fd_sc_hd__clkbuf_4
*CAP
1 data_o[18] 0.000328732
2 *1923:X 0.000328732
3 *1842:A data_o[18] 5.20644e-05
4 *1876:A data_o[18] 5.20644e-05
*RES
1 *1923:X data_o[18] 21.6911 
*END

*D_NET *86 0.000775555
*CONN
*P data_o[19] O
*I *1924:X O *D sky130_fd_sc_hd__buf_2
*CAP
1 data_o[19] 0.000301812
2 *1924:X 0.000301812
3 data_o[19] *215:13 5.8024e-05
4 *1844:A data_o[19] 3.84566e-05
5 *1877:A data_o[19] 7.54507e-05
6 *1879:A data_o[19] 0
*RES
1 *1924:X data_o[19] 19.4092 
*END

*D_NET *87 0.000823946
*CONN
*P data_o[1] O
*I *1925:X O *D sky130_fd_sc_hd__clkbuf_4
*CAP
1 data_o[1] 0.000301556
2 *1925:X 0.000301556
3 data_o[1] *206:17 3.3524e-05
4 data_o[1] *211:11 3.69178e-05
5 *1851:A data_o[1] 7.75542e-05
6 *1878:A data_o[1] 7.28369e-05
*RES
1 *1925:X data_o[1] 19.8729 
*END

*D_NET *88 0.000742318
*CONN
*P data_o[20] O
*I *1926:X O *D sky130_fd_sc_hd__buf_2
*CAP
1 data_o[20] 0.000270198
2 *1926:X 0.000270198
3 *1845:A data_o[20] 0.000125805
4 *1879:A data_o[20] 7.61181e-05
*RES
1 *1926:X data_o[20] 19.4092 
*END

*D_NET *89 0.000791277
*CONN
*P data_o[21] O
*I *1927:X O *D sky130_fd_sc_hd__buf_2
*CAP
1 data_o[21] 0.000345155
2 *1927:X 0.000345155
3 *1845:A data_o[21] 0
4 *1846:A data_o[21] 5.20644e-05
5 *1880:A data_o[21] 4.89026e-05
6 *1881:A data_o[21] 0
*RES
1 *1927:X data_o[21] 19.4092 
*END

*D_NET *90 0.000765232
*CONN
*P data_o[22] O
*I *1928:X O *D sky130_fd_sc_hd__buf_2
*CAP
1 data_o[22] 0.000293759
2 *1928:X 0.000293759
3 data_o[22] *220:17 4.63699e-05
4 *1847:A data_o[22] 5.20644e-05
5 *1881:A data_o[22] 7.92798e-05
6 *1882:A data_o[22] 0
*RES
1 *1928:X data_o[22] 19.4092 
*END

*D_NET *91 0.000761752
*CONN
*P data_o[23] O
*I *1929:X O *D sky130_fd_sc_hd__clkbuf_4
*CAP
1 data_o[23] 0.000303511
2 *1929:X 0.000303511
3 data_o[23] *148:12 0
4 *1848:A data_o[23] 7.92798e-05
5 *1882:A data_o[23] 7.54507e-05
*RES
1 *1929:X data_o[23] 19.8729 
*END

*D_NET *92 0.000739886
*CONN
*P data_o[24] O
*I *1930:X O *D sky130_fd_sc_hd__buf_2
*CAP
1 data_o[24] 0.000293825
2 *1930:X 0.000293825
3 *1849:A data_o[24] 7.61181e-05
4 *1883:A data_o[24] 7.61181e-05
*RES
1 *1930:X data_o[24] 19.4092 
*END

*D_NET *93 0.000727796
*CONN
*P data_o[25] O
*I *1931:X O *D sky130_fd_sc_hd__buf_2
*CAP
1 data_o[25] 0.000285392
2 *1931:X 0.000285392
3 *1850:A data_o[25] 7.92798e-05
4 *1885:A data_o[25] 7.77327e-05
*RES
1 *1931:X data_o[25] 19.4092 
*END

*D_NET *94 0.000786767
*CONN
*P data_o[26] O
*I *1932:X O *D sky130_fd_sc_hd__buf_2
*CAP
1 data_o[26] 0.000305548
2 *1932:X 0.000305548
3 *1850:A data_o[26] 0
4 *1852:A data_o[26] 0.000123607
5 *1886:A data_o[26] 5.20644e-05
*RES
1 *1932:X data_o[26] 19.4092 
*END

*D_NET *95 0.000784216
*CONN
*P data_o[27] O
*I *1933:X O *D sky130_fd_sc_hd__buf_2
*CAP
1 data_o[27] 0.000353651
2 *1933:X 0.000353651
3 data_o[27] *188:10 0
4 *1853:A data_o[27] 3.84566e-05
5 *1887:A data_o[27] 3.84566e-05
*RES
1 *1933:X data_o[27] 21.9047 
*END

*D_NET *96 0.000834357
*CONN
*P data_o[28] O
*I *1934:X O *D sky130_fd_sc_hd__clkbuf_4
*CAP
1 data_o[28] 0.00020286
2 *1934:X 0.00020286
3 data_o[28] *154:12 0.000139739
4 data_o[28] *188:10 0.000136662
5 *1854:A data_o[28] 7.61181e-05
6 *1888:A data_o[28] 7.61181e-05
*RES
1 *1934:X data_o[28] 19.6407 
*END

*D_NET *97 0.000782417
*CONN
*P data_o[29] O
*I *1935:X O *D sky130_fd_sc_hd__clkbuf_4
*CAP
1 data_o[29] 0.000340725
2 *1935:X 0.000340725
3 data_o[29] *154:12 0
4 *1856:A data_o[29] 4.89026e-05
5 *1889:A data_o[29] 5.20644e-05
*RES
1 *1935:X data_o[29] 21.6911 
*END

*D_NET *98 0.000979619
*CONN
*P data_o[2] O
*I *1936:X O *D sky130_fd_sc_hd__buf_2
*CAP
1 data_o[2] 0.000320089
2 *1936:X 0.000320089
3 data_o[2] *121:18 0.000111478
4 data_o[2] *191:12 7.70035e-05
5 data_o[2] *206:17 1.95891e-05
6 *1855:A data_o[2] 0
7 *1862:A data_o[2] 0.00010059
8 *1890:A data_o[2] 3.07816e-05
*RES
1 *1936:X data_o[2] 19.4092 
*END

*D_NET *99 0.000766623
*CONN
*P data_o[30] O
*I *1905:X O *D sky130_fd_sc_hd__buf_2
*CAP
1 data_o[30] 0.000267892
2 *1905:X 0.000267892
3 data_o[30] *154:12 5.21873e-05
4 data_o[30] *192:12 2.16394e-05
5 *1857:A data_o[30] 7.77327e-05
6 *1891:A data_o[30] 7.92798e-05
*RES
1 *1905:X data_o[30] 19.4092 
*END

*D_NET *100 0.000768176
*CONN
*P data_o[31] O
*I *1906:X O *D sky130_fd_sc_hd__buf_2
*CAP
1 data_o[31] 0.000342875
2 *1906:X 0.000342875
3 data_o[31] *192:12 3.3524e-05
4 *1857:A data_o[31] 0
5 *1892:A data_o[31] 4.89026e-05
*RES
1 *1906:X data_o[31] 19.4092 
*END

*D_NET *101 0.000988054
*CONN
*P data_o[3] O
*I *1907:X O *D sky130_fd_sc_hd__clkbuf_4
*CAP
1 data_o[3] 0.000345299
2 *1907:X 0.000345299
3 data_o[3] *201:22 0.000118506
4 data_o[3] *210:11 0.000120558
5 *1873:A data_o[3] 2.76115e-05
6 *1893:A data_o[3] 3.07816e-05
*RES
1 *1907:X data_o[3] 21.9047 
*END

*D_NET *102 0.000992304
*CONN
*P data_o[4] O
*I *1908:X O *D sky130_fd_sc_hd__buf_2
*CAP
1 data_o[4] 0.000346922
2 *1908:X 0.000346922
3 data_o[4] *122:24 0.000106912
4 data_o[4] *200:20 5.58875e-06
5 data_o[4] *201:18 0
6 data_o[4] *210:11 0.000120558
7 *1884:A data_o[4] 3.46191e-05
8 *1894:A data_o[4] 3.07816e-05
*RES
1 *1908:X data_o[4] 21.9047 
*END

*D_NET *103 0.000960551
*CONN
*P data_o[5] O
*I *1909:X O *D sky130_fd_sc_hd__clkbuf_4
*CAP
1 data_o[5] 0.000384585
2 *1909:X 0.000384585
3 data_o[5] *122:24 4.5539e-05
4 data_o[5] *138:28 6.74613e-05
5 data_o[5] *210:11 4.75911e-05
6 *1895:A data_o[5] 3.07899e-05
*RES
1 *1909:X data_o[5] 22.0297 
*END

*D_NET *104 0.000936397
*CONN
*P data_o[6] O
*I *1910:X O *D sky130_fd_sc_hd__buf_2
*CAP
1 data_o[6] 0.000302372
2 *1910:X 0.000302372
3 data_o[6] *164:14 0.000115063
4 data_o[6] *201:18 0.000113647
5 *1863:A data_o[6] 0
6 *1897:A data_o[6] 7.21611e-05
7 *1903:A data_o[6] 3.07816e-05
*RES
1 *1910:X data_o[6] 19.4092 
*END

*D_NET *105 0.000953221
*CONN
*P data_o[7] O
*I *1911:X O *D sky130_fd_sc_hd__buf_2
*CAP
1 data_o[7] 0.000291664
2 *1911:X 0.000291664
3 data_o[7] *201:18 0.000111339
4 data_o[7] *204:17 0.000112686
5 *1898:A data_o[7] 7.21611e-05
6 *1904:A data_o[7] 7.37083e-05
*RES
1 *1911:X data_o[7] 19.4092 
*END

*D_NET *106 0.00106456
*CONN
*P data_o[8] O
*I *1912:X O *D sky130_fd_sc_hd__clkbuf_4
*CAP
1 data_o[8] 0.000296215
2 *1912:X 0.000296215
3 data_o[8] *185:10 0.000163442
4 data_o[8] *201:10 0.000162142
5 *1830:A data_o[8] 7.75542e-05
6 *1899:A data_o[8] 6.8991e-05
*RES
1 *1912:X data_o[8] 20.48 
*END

*D_NET *107 0.000896624
*CONN
*P data_o[9] O
*I *1913:X O *D sky130_fd_sc_hd__buf_2
*CAP
1 data_o[9] 0.000252683
2 *1913:X 0.000252683
3 data_o[9] *185:10 5.57632e-05
4 data_o[9] *204:17 0.000115063
5 *1832:A data_o[9] 7.75542e-05
6 *1900:A data_o[9] 0.000142877
*RES
1 *1913:X data_o[9] 19.4092 
*END

*D_NET *108 0.00106871
*CONN
*P en_i I
*I *1901:A I *D sky130_fd_sc_hd__clkbuf_4
*CAP
1 en_i 0.000272713
2 *1901:A 0.000272713
3 *1901:A *1902:A 0.000133648
4 *1901:A *202:18 5.4753e-05
5 *1901:A *206:11 0.000138599
6 *1901:A *211:11 0
7 *43:11 *1901:A 0.000196287
*RES
1 en_i *1901:A 19.929 
*END

*D_NET *109 0.00118493
*CONN
*P read_en_i I
*I *1902:A I *D sky130_fd_sc_hd__clkbuf_4
*CAP
1 read_en_i 0.000348334
2 *1902:A 0.000348334
3 *1902:A *202:18 6.67536e-05
4 *1902:A *203:20 6.35933e-05
5 *1902:A *206:11 0.000185812
6 *1902:A *211:11 0
7 *1829:A *1902:A 3.84566e-05
8 *1901:A *1902:A 0.000133648
*RES
1 read_en_i *1902:A 20.5361 
*END

*D_NET *112 0.0287229
*CONN
*I *1937:AD[0] I *D CF_SRAM_1024x32
*I *1829:X O *D sky130_fd_sc_hd__clkbuf_4
*CAP
1 *1937:AD[0] 0.00172229
2 *1829:X 0.000339946
3 *112:10 0.0045863
4 *112:8 0.00320396
5 *1937:AD[0] *1937:AD[1] 1.74787e-05
6 *1937:AD[0] *1937:AD[2] 0
7 *1937:AD[0] *1937:R_WB 9.25426e-05
8 *112:8 *205:9 0.000477618
9 *112:10 *133:10 0.00751579
10 *112:10 *141:18 0
11 *112:10 *169:10 0.00828308
12 *112:10 *170:10 0.000310056
13 *112:10 *173:22 0.00217388
14 *112:10 *209:11 0
*RES
1 *1829:X *112:8 18.4429 
2 *112:8 *112:10 116.393 
3 *112:10 *1937:AD[0] 32.2634 
*END

*D_NET *113 0.00762158
*CONN
*I *1937:AD[9] I *D CF_SRAM_1024x32
*I *1830:X O *D sky130_fd_sc_hd__buf_2
*CAP
1 *1937:AD[9] 0.00181466
2 *1830:X 0.000603455
3 *113:17 1.63227e-06
4 *113:12 0.00241649
5 *1937:AD[9] *230:DIODE 4.58194e-05
6 *1937:AD[9] *1937:AD[3] 0
7 *1937:AD[9] *1937:AD[7] 0
8 *1937:AD[9] *1937:AD[8] 0.00123334
9 *113:12 *204:17 0.000339238
10 *113:12 *206:19 0.00110033
11 *113:17 *1937:AD[3] 0
12 data_o[10] *113:12 3.61908e-05
13 *1830:A *113:12 3.04311e-05
*RES
1 *1830:X *113:12 34.05 
2 *113:12 *1937:AD[9] 30.5179 
3 *1937:AD[9] *113:17 0.12963 
*END

*D_NET *114 0.00722826
*CONN
*I *1905:A I *D sky130_fd_sc_hd__buf_2
*I *1937:DO[30] O *D CF_SRAM_1024x32
*CAP
1 *1905:A 0.000674152
2 *1937:DO[30] 0.00120445
3 *114:9 0.0018786
4 *1905:A *190:12 0.000647933
5 *1905:A *192:12 0.000227669
6 *1905:A *193:12 0.000901796
7 *114:9 *1937:DI[30] 0.00169366
*RES
1 *1937:DO[30] *114:9 34.3423 
2 *114:9 *1905:A 32.5857 
*END

*D_NET *115 0.0070852
*CONN
*I *1906:A I *D sky130_fd_sc_hd__buf_2
*I *1937:DO[31] O *D CF_SRAM_1024x32
*CAP
1 *1906:A 0.000833268
2 *1937:DO[31] 0.00126713
3 *115:9 0.0021004
4 *1906:A *192:12 0.000808949
5 *1906:A *193:12 0.000353587
6 *115:9 *1937:DI[31] 0.00172187
*RES
1 *1937:DO[31] *115:9 35.6036 
2 *115:9 *1906:A 33.3536 
*END

*D_NET *116 0.0102022
*CONN
*I *1907:A I *D sky130_fd_sc_hd__clkbuf_4
*I *1937:DO[3] O *D CF_SRAM_1024x32
*CAP
1 *1907:A 0
2 *1937:DO[3] 0.00107782
3 *116:15 0.00208474
4 *116:9 0.00316256
5 *116:9 *1937:DI[3] 0.000369363
6 *116:9 *207:10 0.000722547
7 *116:15 *117:13 0.00087399
8 *116:15 *134:10 0.00076335
9 *116:15 *160:12 0.000846399
10 *116:15 *161:12 6.02022e-05
11 *116:15 *166:16 0.000241259
12 *116:15 *216:33 0
*RES
1 *1937:DO[3] *116:9 23.0804 
2 *116:9 *116:15 47.8393 
3 *116:15 *1907:A 9.3 
*END

*D_NET *117 0.00696527
*CONN
*I *1908:A I *D sky130_fd_sc_hd__buf_2
*I *1937:DO[4] O *D CF_SRAM_1024x32
*CAP
1 *1908:A 0.00101145
2 *1937:DO[4] 0.00162914
3 *117:13 0.0026406
4 *1908:A *179:20 0.000165123
5 *117:13 *1937:DI[4] 0
6 *117:13 *144:24 4.74201e-05
7 *117:13 *161:12 0.000313801
8 *117:13 *166:16 0.000283742
9 *116:15 *117:13 0.00087399
*RES
1 *1937:DO[4] *117:13 38.5089 
2 *117:13 *1908:A 22.9786 
*END

*D_NET *118 0.00600814
*CONN
*I *1909:A I *D sky130_fd_sc_hd__clkbuf_4
*I *1937:DO[5] O *D CF_SRAM_1024x32
*CAP
1 *1909:A 0
2 *1937:DO[5] 0.00229066
3 *118:15 0.00229066
4 *118:15 *1937:BEN[4] 0.000641049
5 *118:15 *1937:DI[5] 0
6 *118:15 *136:10 0.0004445
7 *118:15 *161:12 0.000341276
*RES
1 *1937:DO[5] *118:15 47.3304 
2 *118:15 *1909:A 9.3 
*END

*D_NET *119 0.00983866
*CONN
*I *1910:A I *D sky130_fd_sc_hd__buf_2
*I *1937:DO[6] O *D CF_SRAM_1024x32
*CAP
1 *1910:A 0.00167381
2 *1937:DO[6] 0.00147614
3 *119:27 0.00314995
4 *1910:A *174:10 0.000441093
5 *119:27 *1937:DI[3] 0.000905328
6 *119:27 *1937:DI[6] 0.000573315
7 *119:27 *152:22 0.000576041
8 *119:27 *156:16 0.000903614
9 *119:27 *203:20 0.000139372
10 *119:27 *216:33 0
*RES
1 *1937:DO[6] *119:27 48.5292 
2 *119:27 *1910:A 42.0857 
*END

*D_NET *120 0.0152778
*CONN
*I *1911:A I *D sky130_fd_sc_hd__buf_2
*I *1937:DO[7] O *D CF_SRAM_1024x32
*CAP
1 *1911:A 0.00079162
2 *1937:DO[7] 0.000796703
3 *120:24 0.00185431
4 *120:12 0.0018594
5 *120:4 0
6 *1911:A *1937:DI[2] 0.000392195
7 *1911:A *141:18 0.000312624
8 *1911:A *167:24 0.000469394
9 *1911:A *199:12 0.000889989
10 *120:12 *1937:DI[7] 0.00239482
11 *120:12 *134:16 0.000770699
12 *120:24 *162:10 0.00200669
13 *120:24 *172:28 0.000222325
14 *120:24 *199:16 0.00251707
*RES
1 *1937:DO[7] *120:4 0.134615 
2 *1937:DO[7] *120:12 27.625 
3 *120:12 *120:24 39.3979 
4 *120:24 *1911:A 35.0589 
*END

*D_NET *121 0.0185368
*CONN
*I *1912:A I *D sky130_fd_sc_hd__clkbuf_4
*I *1937:DO[8] O *D CF_SRAM_1024x32
*CAP
1 *1912:A 0
2 *1937:DO[8] 0.00239721
3 *121:26 0.00141241
4 *121:24 0.00147932
5 *121:18 0.00246412
6 *121:4 0
7 *121:18 *1937:DI[8] 0.00200496
8 *121:18 *164:22 0.000605384
9 *121:18 *191:12 0.000197789
10 *121:18 *206:17 9.93481e-05
11 *121:18 *211:11 3.78516e-05
12 *121:24 *159:8 0.000140856
13 *121:26 *191:12 0.000627266
14 *121:26 *191:16 0.0021936
15 *121:26 *204:17 0.000346236
16 *121:26 *206:19 0.0041691
17 data_o[2] *121:18 0.000111478
18 *1851:A *121:18 9.85927e-05
19 *1855:A *121:18 7.92879e-05
20 *1858:A *121:24 7.19623e-05
*RES
1 *1937:DO[8] *121:4 0.159091 
2 *1937:DO[8] *121:18 48.875 
3 *121:18 *121:24 10.7679 
4 *121:24 *121:26 54.1607 
5 *121:26 *1912:A 13.8 
*END

*D_NET *122 0.0218043
*CONN
*I *1913:A I *D sky130_fd_sc_hd__buf_2
*I *236:DIODE I *D sky130_fd_sc_hd__diode_2
*I *1937:DO[9] O *D CF_SRAM_1024x32
*CAP
1 *1913:A 0
2 *236:DIODE 0.000102782
3 *1937:DO[9] 0.00163021
4 *122:30 0.00101541
5 *122:24 0.00128702
6 *122:20 0.000961426
7 *122:12 0.00221724
8 *122:4 0
9 *122:12 *1937:DI[9] 0.00191809
10 *122:12 *141:10 5.018e-05
11 *122:20 *200:20 0.0020361
12 *122:20 *201:18 6.05161e-06
13 *122:20 *201:22 0.000410563
14 *122:20 *205:11 0.00284472
15 *122:24 *200:20 0.00113215
16 *122:24 *205:11 8.41555e-06
17 *122:24 *210:11 0.000443135
18 *122:30 *196:10 0.000566415
19 *122:30 *200:14 0.00184491
20 *122:30 *205:11 0.00298335
21 *122:30 *210:11 0
22 data_o[4] *122:24 0.000106912
23 data_o[5] *122:24 4.5539e-05
24 *1843:A *122:12 0
25 *1860:A *122:24 0.000193698
*RES
1 *1937:DO[9] *122:4 0.194444 
2 *1937:DO[9] *122:12 40.3571 
3 *122:12 *122:20 44.6786 
4 *122:20 *122:24 15.4911 
5 *122:24 *122:30 45.9554 
6 *122:30 *236:DIODE 10.6571 
7 *122:30 *1913:A 9.3 
*END

*D_NET *123 0.00133882
*CONN
*I *1937:SM I *D CF_SRAM_1024x32
*I *1938:LO O *D sky130_fd_sc_hd__conb_1
*CAP
1 *1937:SM 0.000669409
2 *1938:LO 0.000669409
3 *1937:SM *1937:ScanInDR 0
*RES
1 *1938:LO *1937:SM 21.6884 
*END

*D_NET *124 0.0237413
*CONN
*I *1937:BEN[0] I *D CF_SRAM_1024x32
*I *1831:X O *D sky130_fd_sc_hd__buf_2
*CAP
1 *1937:BEN[0] 0.00224177
2 *1831:X 0.000410447
3 *124:10 0.0042149
4 *124:8 0.00238359
5 *1937:BEN[0] *1937:ScanInDL 0
6 *124:10 *133:10 0.0069379
7 *124:10 *165:10 0.0003955
8 *124:10 *167:10 0.00516071
9 *124:10 *171:28 0.00157431
10 *124:10 *209:11 0.000335413
11 *1831:A *124:8 5.45307e-05
12 *1900:A *124:10 3.22243e-05
*RES
1 *1831:X *124:8 18.4429 
2 *124:8 *124:10 88.4643 
3 *124:10 *1937:BEN[0] 31.9554 
*END

*D_NET *125 0.00170428
*CONN
*I *1937:ScanInCC I *D CF_SRAM_1024x32
*I *1939:LO O *D sky130_fd_sc_hd__conb_1
*CAP
1 *1937:ScanInCC 0.000477093
2 *1939:LO 0.000470097
3 *125:9 6.99545e-06
4 *1937:ScanInCC *1937:AD[3] 0.000646208
5 *1937:ScanInCC *204:9 0.000103883
*RES
1 *1939:LO *1937:ScanInCC 20.925 
2 *1937:ScanInCC *125:9 0.133929 
*END

*D_NET *126 0.00225682
*CONN
*I *1937:ScanInDL I *D CF_SRAM_1024x32
*I *1940:LO O *D sky130_fd_sc_hd__conb_1
*CAP
1 *1937:ScanInDL 0.000514895
2 *1940:LO 0.000514895
3 *1937:ScanInDL *1937:DI[0] 0.00122703
4 *1937:BEN[0] *1937:ScanInDL 0
*RES
1 *1940:LO *1937:ScanInDL 21.6482 
*END

*D_NET *127 0.00148466
*CONN
*I *1937:ScanInDR I *D CF_SRAM_1024x32
*I *1941:LO O *D sky130_fd_sc_hd__conb_1
*CAP
1 *1937:ScanInDR 0.000648176
2 *1941:LO 0.000648176
3 *1937:ScanInDR *212:9 0.000188313
4 *1937:SM *1937:ScanInDR 0
*RES
1 *1941:LO *1937:ScanInDR 21.9964 
*END

*D_NET *128 0.00227816
*CONN
*I *1937:TM I *D CF_SRAM_1024x32
*I *1942:LO O *D sky130_fd_sc_hd__conb_1
*CAP
1 *1937:TM 0.000504212
2 *1942:LO 0.000504212
3 *1937:TM *1937:WLBI 0.00126973
*RES
1 *1942:LO *1937:TM 22.2196 
*END

*D_NET *129 0.0026817
*CONN
*I *1937:WLBI I *D CF_SRAM_1024x32
*I *1943:LO O *D sky130_fd_sc_hd__conb_1
*CAP
1 *1937:WLBI 0.000302187
2 *1943:LO 0.000302187
3 *1937:WLBI *1937:DI[17] 0
4 *1937:WLBI *213:13 0.00080759
5 *1937:TM *1937:WLBI 0.00126973
*RES
1 *1943:LO *1937:WLBI 23.7152 
*END

*D_NET *130 0.00213801
*CONN
*I *1937:WLOFF I *D CF_SRAM_1024x32
*I *1944:LO O *D sky130_fd_sc_hd__conb_1
*CAP
1 *1937:WLOFF 0.000554719
2 *1944:LO 0.000554719
3 *1937:WLOFF *1937:EN 0.00102858
4 *1937:WLOFF *1937:R_WB 0
*RES
1 *1944:LO *1937:WLOFF 31.983 
*END

*D_NET *131 0.0312852
*CONN
*I *1937:vpwrac I *D CF_SRAM_1024x32
*I *1945:HI O *D sky130_fd_sc_hd__conb_1
*CAP
1 *1937:vpwrac 0.00229439
2 *1945:HI 0.000346034
3 *131:10 0.00843128
4 *131:8 0.00648291
5 *1937:vpwrac *1937:vpwrpc 0.00135657
6 *131:8 *1937:AD[2] 0.00105575
7 *131:10 *132:10 0.0113183
*RES
1 *1945:HI *131:8 23.7821 
2 *131:8 *131:10 146.598 
3 *131:10 *1937:vpwrac 23.0669 
*END

*D_NET *132 0.0301205
*CONN
*I *1937:vpwrpc I *D CF_SRAM_1024x32
*I *1946:HI O *D sky130_fd_sc_hd__conb_1
*CAP
1 *1937:vpwrpc 0.00251642
2 *1946:HI 0.000140817
3 *132:10 0.00743568
4 *132:8 0.00506008
5 *132:8 *1937:AD[1] 0.00114632
6 *132:8 *1937:AD[2] 0.00114632
7 *1937:vpwrac *1937:vpwrpc 0.00135657
8 *131:10 *132:10 0.0113183
*RES
1 *1946:HI *132:8 24.6036 
2 *132:8 *132:10 141.134 
3 *132:10 *1937:vpwrpc 23.9098 
*END

*D_NET *133 0.0262515
*CONN
*I *1937:BEN[10] I *D CF_SRAM_1024x32
*I *1832:X O *D sky130_fd_sc_hd__buf_2
*CAP
1 *1937:BEN[10] 0.00221331
2 *1832:X 0.00041184
3 *133:10 0.00457843
4 *133:8 0.00277696
5 *133:8 *204:9 0.000142362
6 *133:10 *169:10 0.000181017
7 *133:10 *171:28 0.00142394
8 *133:10 *209:11 0
9 *1832:A *133:8 5.07619e-05
10 *1900:A *133:10 1.91512e-05
11 *112:10 *133:10 0.00751579
12 *124:10 *133:10 0.0069379
*RES
1 *1832:X *133:8 18.8536 
2 *133:8 *133:10 100.607 
3 *133:10 *1937:BEN[10] 32.9196 
*END

*D_NET *134 0.0237694
*CONN
*I *1937:BEN[11] I *D CF_SRAM_1024x32
*I *1833:X O *D sky130_fd_sc_hd__clkbuf_4
*CAP
1 *1937:BEN[11] 0.00075363
2 *1833:X 0.0011276
3 *134:20 0.00255259
4 *134:16 0.00216253
5 *134:10 0.00297581
6 *134:8 0.00373983
7 *134:8 *1937:AD[6] 0.000112109
8 *134:10 *160:12 0.000844752
9 *134:10 *166:16 0
10 *134:10 *216:33 0
11 *134:20 *136:18 0.000975483
12 *134:20 *152:22 0.000312015
13 *134:20 *156:16 0.000251639
14 *134:20 *203:20 0.000465466
15 *134:20 *228:23 0.000197977
16 *1833:A *134:8 2.07878e-05
17 *43:13 *134:10 0.0057431
18 *116:15 *134:10 0.00076335
19 *120:12 *134:16 0.000770699
*RES
1 *1833:X *134:8 26.2464 
2 *134:8 *134:10 74.5 
3 *134:10 *134:16 16.5179 
4 *134:16 *134:20 47.7321 
5 *134:20 *1937:BEN[11] 12.8304 
*END

*D_NET *135 0.031301
*CONN
*I *1937:BEN[12] I *D CF_SRAM_1024x32
*I *1834:X O *D sky130_fd_sc_hd__clkbuf_4
*CAP
1 *1937:BEN[12] 0.00203741
2 *1834:X 0.000551827
3 *135:10 0.0057604
4 *135:8 0.00427482
5 *135:10 *141:18 0.000336146
6 *135:10 *163:22 0.00133613
7 *135:10 *163:26 0.00379196
8 *135:10 *165:18 0.000597464
9 *135:10 *170:10 0.0102982
10 *135:10 *172:28 0.00199144
11 *135:10 *179:20 0.000305147
12 *135:10 *179:24 2.00756e-05
13 *135:10 *209:11 0
*RES
1 *1834:X *135:8 19.675 
2 *135:8 *135:10 134.607 
3 *135:10 *1937:BEN[12] 31.3125 
*END

*D_NET *136 0.0278471
*CONN
*I *1937:BEN[13] I *D CF_SRAM_1024x32
*I *1835:X O *D sky130_fd_sc_hd__clkbuf_4
*CAP
1 *1937:BEN[13] 0.000841142
2 *1835:X 0.00101471
3 *136:18 0.00381993
4 *136:16 0.00366377
5 *136:10 0.00433404
6 *136:8 0.00466378
7 *136:10 *137:18 0.00292895
8 *136:10 *166:20 0.00209165
9 *136:16 *156:8 6.78802e-05
10 *136:18 *156:16 0.000133012
11 *136:18 *171:28 0
12 *136:18 *203:20 0.000403995
13 *1835:A *136:8 1.28171e-05
14 *43:13 *136:10 0.0024514
15 *118:15 *136:10 0.0004445
16 *134:20 *136:18 0.000975483
*RES
1 *1835:X *136:8 25.0143 
2 *136:8 *136:10 95.75 
3 *136:10 *136:16 16.5179 
4 *136:16 *136:18 55.9821 
5 *136:18 *1937:BEN[13] 18.5982 
*END

*D_NET *137 0.033399
*CONN
*I *1937:BEN[14] I *D CF_SRAM_1024x32
*I *1836:X O *D sky130_fd_sc_hd__clkbuf_4
*CAP
1 *1937:BEN[14] 0.00149977
2 *1836:X 0.000110896
3 *137:18 0.00528934
4 *137:16 0.00469925
5 *137:10 0.0029196
6 *137:8 0.00212081
7 *137:10 *1916:A 6.99972e-05
8 *137:10 *171:14 8.84432e-05
9 *137:10 *204:19 0.000758881
10 *137:10 *206:19 0.00374572
11 *137:10 *208:11 0.00178517
12 *137:10 *209:11 0.000213294
13 *137:10 *211:11 0
14 *137:16 *162:10 0.00070712
15 *137:18 *166:20 0.000781965
16 data_o[12] *137:10 0
17 *1834:A *137:10 6.8057e-05
18 *1836:A *137:8 5.65955e-05
19 *1869:A *137:10 9.41758e-05
20 *1870:A *137:10 7.10834e-05
21 *43:13 *137:18 0.00538993
22 *136:10 *137:18 0.00292895
*RES
1 *1836:X *137:8 15.1571 
2 *137:8 *137:10 65.6964 
3 *137:10 *137:16 19.3929 
4 *137:16 *137:18 103.036 
5 *137:18 *1937:BEN[14] 25.5982 
*END

*D_NET *138 0.0344806
*CONN
*I *1937:BEN[15] I *D CF_SRAM_1024x32
*I *1837:X O *D sky130_fd_sc_hd__clkbuf_4
*CAP
1 *1937:BEN[15] 0.000634684
2 *1837:X 0.000346073
3 *138:28 0.00746464
4 *138:10 0.00994602
5 *138:8 0.00346214
6 *138:10 *196:10 0
7 *138:10 *205:11 0.00405173
8 *138:10 *210:11 0
9 *138:10 *210:19 0
10 *138:10 *211:11 0
11 *138:28 *167:10 0.000484603
12 *138:28 *171:28 0.0068515
13 *138:28 *172:28 1.49122e-05
14 *138:28 *173:22 0.000461285
15 *138:28 *179:10 0.000542089
16 data_o[13] *138:10 0
17 data_o[5] *138:28 6.74613e-05
18 *1836:A *138:10 0
19 *1884:A *138:28 0
20 *1895:A *138:28 0
21 *1896:A *138:28 0.00015347
*RES
1 *1837:X *138:8 18.8536 
2 *138:8 *138:10 80.4196 
3 *138:10 *138:28 42.6736 
4 *138:28 *1937:BEN[15] 11.6696 
*END

*D_NET *139 0.00528099
*CONN
*I *1937:BEN[16] I *D CF_SRAM_1024x32
*I *1838:X O *D sky130_fd_sc_hd__buf_2
*CAP
1 *1937:BEN[16] 0.00196094
2 *1838:X 0.00048258
3 *139:17 0
4 *139:12 0.00244352
5 *139:12 *1921:A 0.0002252
6 *139:12 *173:14 1.08413e-05
7 *139:12 *175:20 0
8 *139:12 *176:12 0.000105852
9 *1838:A *139:12 5.20669e-05
*RES
1 *1838:X *139:12 27.8893 
2 *139:12 *1937:BEN[16] 29.6964 
3 *1937:BEN[16] *139:17 0.175 
*END

*D_NET *140 0.00555707
*CONN
*I *1937:BEN[17] I *D CF_SRAM_1024x32
*I *1839:X O *D sky130_fd_sc_hd__clkbuf_2
*CAP
1 *1937:BEN[17] 0.00152535
2 *1839:X 0.00110056
3 *140:12 0.00262591
4 *140:12 *214:11 0.000290397
5 *1839:A *140:12 1.48543e-05
*RES
1 *1839:X *140:12 32.4786 
2 *140:12 *1937:BEN[17] 21.4821 
*END

*D_NET *141 0.0245656
*CONN
*I *1937:AD[1] I *D CF_SRAM_1024x32
*I *1840:X O *D sky130_fd_sc_hd__clkbuf_4
*CAP
1 *1937:AD[1] 0.00161957
2 *1840:X 0.000969572
3 *141:18 0.00375667
4 *141:16 0.00257465
5 *141:10 0.00140712
6 *1937:AD[1] *1937:AD[2] 9.19702e-05
7 *141:10 *204:19 0.00241692
8 *141:10 *206:17 0.000383424
9 *141:10 *206:19 0.00118808
10 *141:16 *160:12 0.00012139
11 *141:18 *163:26 0.000602821
12 *141:18 *165:18 0.000598069
13 *141:18 *167:24 0.00176612
14 *141:18 *170:10 0
15 *141:18 *172:28 0.000881411
16 *141:18 *179:20 4.78647e-05
17 *141:18 *179:24 0.00269864
18 *141:18 *199:12 1.09026e-05
19 *141:18 *199:16 0.00156767
20 *1911:A *141:18 0.000312624
21 *1937:AD[0] *1937:AD[1] 1.74787e-05
22 *112:10 *141:18 0
23 *122:12 *141:10 5.018e-05
24 *132:8 *1937:AD[1] 0.00114632
25 *135:10 *141:18 0.000336146
*RES
1 *1840:X *141:10 46.55 
2 *141:10 *141:16 14.875 
3 *141:16 *141:18 73.2857 
4 *141:18 *1937:AD[1] 29.2455 
*END

*D_NET *142 0.00600077
*CONN
*I *1937:BEN[18] I *D CF_SRAM_1024x32
*I *1841:X O *D sky130_fd_sc_hd__clkbuf_2
*CAP
1 *1937:BEN[18] 0.00283774
2 *1841:X 0.00283774
3 *1937:BEN[18] *1922:A 0.000120604
4 *1937:BEN[18] *1937:DI[18] 0
5 data_o[17] *1937:BEN[18] 1.83053e-05
6 *1841:A *1937:BEN[18] 0.000186387
*RES
1 *1841:X *1937:BEN[18] 46.7464 
*END

*D_NET *143 0.00505253
*CONN
*I *1937:BEN[19] I *D CF_SRAM_1024x32
*I *1842:X O *D sky130_fd_sc_hd__clkbuf_2
*CAP
1 *1937:BEN[19] 0.00249797
2 *1842:X 0.00249797
3 *1937:BEN[19] *1937:DI[19] 0
4 *1842:A *1937:BEN[19] 5.65955e-05
*RES
1 *1842:X *1937:BEN[19] 41.4607 
*END

*D_NET *144 0.0174109
*CONN
*I *1937:BEN[1] I *D CF_SRAM_1024x32
*I *1843:X O *D sky130_fd_sc_hd__buf_2
*CAP
1 *1937:BEN[1] 0.000640814
2 *1843:X 0.00155499
3 *144:24 0.00215255
4 *144:10 0.00434025
5 *144:8 0.00438351
6 *1937:BEN[1] *228:11 0
7 *144:10 *161:12 0
8 *144:10 *216:33 0.00239971
9 *144:10 *228:11 0.000849734
10 *144:24 *152:40 0.000205586
11 *144:24 *198:14 0.000271036
12 *144:24 *207:14 0.000531021
13 *1843:A *144:8 3.42509e-05
14 *43:13 *144:10 0
15 *117:13 *144:24 4.74201e-05
*RES
1 *1843:X *144:8 30.3536 
2 *144:8 *144:10 47.7857 
3 *144:10 *144:24 41.4107 
4 *144:24 *1937:BEN[1] 11.7054 
*END

*D_NET *145 0.00489908
*CONN
*I *1937:BEN[20] I *D CF_SRAM_1024x32
*I *1844:X O *D sky130_fd_sc_hd__clkbuf_2
*CAP
1 *1937:BEN[20] 0.00147034
2 *1844:X 0.000777244
3 *145:12 0.00224758
4 *1937:BEN[20] *1937:DI[20] 0
5 *1937:BEN[20] *180:12 0.000389064
6 *1844:A *145:12 1.48543e-05
*RES
1 *1844:X *145:12 27.5679 
2 *145:12 *1937:BEN[20] 25.0179 
*END

*D_NET *146 0.00564754
*CONN
*I *1937:BEN[21] I *D CF_SRAM_1024x32
*I *1845:X O *D sky130_fd_sc_hd__clkbuf_2
*CAP
1 *1937:BEN[21] 0.00140016
2 *1845:X 0.000937834
3 *146:12 0.00233799
4 *1937:BEN[21] *219:22 0.000781272
5 *1845:A *146:12 0.00019028
*RES
1 *1845:X *146:12 30.9071 
2 *146:12 *1937:BEN[21] 24.5357 
*END

*D_NET *147 0.00583298
*CONN
*I *1937:BEN[22] I *D CF_SRAM_1024x32
*I *1846:X O *D sky130_fd_sc_hd__clkbuf_2
*CAP
1 *1937:BEN[22] 0.00188922
2 *1846:X 0.00101985
3 *147:12 0.00290906
4 *1846:A *147:12 1.48543e-05
*RES
1 *1846:X *147:12 32.1214 
2 *147:12 *1937:BEN[22] 25.3571 
*END

*D_NET *148 0.00632087
*CONN
*I *1937:BEN[23] I *D CF_SRAM_1024x32
*I *1847:X O *D sky130_fd_sc_hd__clkbuf_2
*CAP
1 *1937:BEN[23] 0.00213703
2 *1847:X 0.000806701
3 *148:12 0.00294374
4 *1937:BEN[23] *184:12 0.000270264
5 *148:12 *149:12 0.000106542
6 data_o[23] *148:12 0
7 *1847:A *148:12 5.65955e-05
*RES
1 *1847:X *148:12 31.55 
2 *148:12 *1937:BEN[23] 28.6786 
*END

*D_NET *149 0.00695809
*CONN
*I *1937:BEN[24] I *D CF_SRAM_1024x32
*I *1848:X O *D sky130_fd_sc_hd__clkbuf_2
*CAP
1 *1937:BEN[24] 0.0022473
2 *1848:X 0.000812764
3 *149:12 0.00306006
4 *1937:BEN[24] *223:15 0.000334463
5 *149:12 *150:12 0.000382113
6 *1848:A *149:12 1.48543e-05
7 *1850:A *149:12 0
8 *148:12 *149:12 0.000106542
*RES
1 *1848:X *149:12 33.1571 
2 *149:12 *1937:BEN[24] 29.4821 
*END

*D_NET *150 0.0071888
*CONN
*I *1937:BEN[25] I *D CF_SRAM_1024x32
*I *1849:X O *D sky130_fd_sc_hd__buf_2
*CAP
1 *1937:BEN[25] 0.00224212
2 *1849:X 0.000898638
3 *150:12 0.00314076
4 *1937:BEN[25] *224:15 0
5 *150:12 *151:12 0.000301423
6 *150:12 *222:17 1.96172e-05
7 *1849:A *150:12 5.45307e-05
8 *1852:A *1937:BEN[25] 5.03772e-05
9 *1852:A *150:12 9.92292e-05
10 *149:12 *150:12 0.000382113
*RES
1 *1849:X *150:12 35.9964 
2 *150:12 *1937:BEN[25] 29.0536 
*END

*D_NET *151 0.00750188
*CONN
*I *1937:BEN[26] I *D CF_SRAM_1024x32
*I *1850:X O *D sky130_fd_sc_hd__buf_2
*CAP
1 *1937:BEN[26] 0.00230651
2 *1850:X 0.000826485
3 *151:12 0.003133
4 *151:12 *187:12 0.000753183
5 *151:12 *189:12 9.11048e-06
6 *151:12 *225:15 0.000119597
7 *1850:A *151:12 5.25759e-05
8 *150:12 *151:12 0.000301423
*RES
1 *1850:X *151:12 37.9071 
2 *151:12 *1937:BEN[26] 29.6964 
*END

*D_NET *152 0.0256927
*CONN
*I *1937:AD[2] I *D CF_SRAM_1024x32
*I *1851:X O *D sky130_fd_sc_hd__clkbuf_4
*CAP
1 *1937:AD[2] 0.0017947
2 *1851:X 0.00158576
3 *152:40 0.00281048
4 *152:22 0.00247163
5 *152:8 0.00304161
6 *1937:AD[2] *174:10 0.00175003
7 *1937:AD[2] *203:20 0.000486494
8 *152:8 *1937:DI[8] 0.00215129
9 *152:22 *1937:BEN[3] 0.000324073
10 *152:22 *1937:DI[5] 9.41642e-05
11 *152:22 *1937:DI[6] 0.000129386
12 *152:22 *228:23 0
13 *152:40 *1937:AD[8] 3.53786e-05
14 *152:40 *1937:BEN[3] 0.000943007
15 *152:40 *1937:DI[3] 0.000396654
16 *152:40 *198:14 0.00102422
17 *152:40 *203:20 0.000133665
18 *152:40 *207:14 0.0015569
19 *152:40 *216:17 0.00157559
20 *1937:AD[0] *1937:AD[2] 0
21 *1937:AD[1] *1937:AD[2] 9.19702e-05
22 *119:27 *152:22 0.000576041
23 *131:8 *1937:AD[2] 0.00105575
24 *132:8 *1937:AD[2] 0.00114632
25 *134:20 *152:22 0.000312015
26 *144:24 *152:40 0.000205586
*RES
1 *1851:X *152:8 34.8714 
2 *152:8 *152:22 41.5179 
3 *152:22 *152:40 45.9107 
4 *152:40 *1937:AD[2] 49.9241 
*END

*D_NET *153 0.00845254
*CONN
*I *1937:BEN[27] I *D CF_SRAM_1024x32
*I *1852:X O *D sky130_fd_sc_hd__buf_2
*CAP
1 *1937:BEN[27] 0.00244544
2 *1852:X 0.000681591
3 *153:12 0.00312703
4 *1937:BEN[27] *1935:A 0.000180079
5 *153:12 *154:12 0.000116608
6 *153:12 *187:12 9.58779e-05
7 *153:12 *188:10 0.000946325
8 *153:12 *189:12 0.000147792
9 *153:12 *225:15 0.000711795
10 *1887:A *153:12 0
*RES
1 *1852:X *153:12 38.3893 
2 *153:12 *1937:BEN[27] 31.3393 
*END

*D_NET *154 0.00838936
*CONN
*I *1937:BEN[28] I *D CF_SRAM_1024x32
*I *1853:X O *D sky130_fd_sc_hd__buf_2
*CAP
1 *1937:BEN[28] 0.00248638
2 *1853:X 0.00102771
3 *154:12 0.00351409
4 *1937:BEN[28] *158:8 0.000188557
5 *154:12 *188:10 0.000216523
6 data_o[28] *154:12 0.000139739
7 data_o[29] *154:12 0
8 data_o[30] *154:12 5.21873e-05
9 *1853:A *154:12 3.67257e-05
10 *1854:A *154:12 6.27457e-05
11 *1856:A *154:12 8.86454e-05
12 *1857:A *1937:BEN[28] 0.000100163
13 *1857:A *154:12 0.000102748
14 *1888:A *154:12 7.75985e-05
15 *1889:A *154:12 8.79824e-05
16 *1891:A *154:12 9.09514e-05
17 *1892:A *154:12 0
18 *153:12 *154:12 0.000116608
*RES
1 *1853:X *154:12 41.2286 
2 *154:12 *1937:BEN[28] 32.5714 
*END

*D_NET *155 0.00908325
*CONN
*I *1937:BEN[29] I *D CF_SRAM_1024x32
*I *1854:X O *D sky130_fd_sc_hd__buf_2
*CAP
1 *1937:BEN[29] 0.00204377
2 *1854:X 0.00158234
3 *155:8 0.0036261
4 *1937:BEN[29] *1937:BEN[30] 0
5 *155:8 *225:15 0.00180679
6 *1854:A *155:8 2.42516e-05
*RES
1 *1854:X *155:8 35.6929 
2 *155:8 *1937:BEN[29] 40.4286 
*END

*D_NET *156 0.0151125
*CONN
*I *1937:BEN[2] I *D CF_SRAM_1024x32
*I *1855:X O *D sky130_fd_sc_hd__buf_2
*CAP
1 *1937:BEN[2] 0.00096435
2 *1855:X 0.00187843
3 *156:16 0.00219981
4 *156:8 0.00311389
5 *1937:BEN[2] *1937:DI[3] 1.9814e-05
6 *1937:BEN[2] *174:10 0.000667374
7 *1937:BEN[2] *203:20 0.000130458
8 *1937:BEN[2] *216:17 0.000621864
9 *156:16 *1937:DI[3] 0.000161044
10 *156:16 *174:10 0.00185574
11 *156:16 *203:20 0.000446183
12 *156:16 *228:23 0.00166314
13 *1855:A *156:8 3.42509e-05
14 *119:27 *156:16 0.000903614
15 *134:20 *156:16 0.000251639
16 *136:16 *156:8 6.78802e-05
17 *136:18 *156:16 0.000133012
*RES
1 *1855:X *156:8 33.6393 
2 *156:8 *156:16 42.4554 
3 *156:16 *1937:BEN[2] 26.7143 
*END

*D_NET *157 0.00910603
*CONN
*I *1937:BEN[30] I *D CF_SRAM_1024x32
*I *1856:X O *D sky130_fd_sc_hd__buf_2
*CAP
1 *1937:BEN[30] 0.00197202
2 *1856:X 0.0017527
3 *157:8 0.00372471
4 *1937:BEN[30] *1937:BEN[31] 0.00160208
5 *1856:A *157:8 5.45307e-05
6 *1937:BEN[29] *1937:BEN[30] 0
*RES
1 *1856:X *157:8 33.2286 
2 *157:8 *1937:BEN[30] 45.3393 
*END

*D_NET *158 0.0102369
*CONN
*I *1937:BEN[31] I *D CF_SRAM_1024x32
*I *1857:X O *D sky130_fd_sc_hd__buf_2
*CAP
1 *1937:BEN[31] 0.00257258
2 *1857:X 0.00163217
3 *158:8 0.00420475
4 *1857:A *158:8 3.67252e-05
5 *1937:BEN[28] *158:8 0.000188557
6 *1937:BEN[30] *1937:BEN[31] 0.00160208
*RES
1 *1857:X *158:8 32.8179 
2 *158:8 *1937:BEN[31] 48.1964 
*END

*D_NET *159 0.0114379
*CONN
*I *1937:BEN[3] I *D CF_SRAM_1024x32
*I *1858:X O *D sky130_fd_sc_hd__buf_2
*CAP
1 *1937:BEN[3] 0.00140522
2 *1858:X 0.00205246
3 *159:8 0.00345768
4 *1937:BEN[3] *1937:DI[3] 0.00219942
5 *1937:BEN[3] *1937:DI[6] 0.000795875
6 *1937:BEN[3] *198:14 1.53472e-05
7 *1937:BEN[3] *228:23 0.000104002
8 *121:24 *159:8 0.000140856
9 *152:22 *1937:BEN[3] 0.000324073
10 *152:40 *1937:BEN[3] 0.000943007
*RES
1 *1858:X *159:8 34.8714 
2 *159:8 *1937:BEN[3] 47.1696 
*END

*D_NET *160 0.0078386
*CONN
*I *1937:BEN[4] I *D CF_SRAM_1024x32
*I *1859:X O *D sky130_fd_sc_hd__buf_2
*CAP
1 *1937:BEN[4] 0.00106824
2 *1859:X 0.00160905
3 *160:12 0.00267729
4 *1859:A *160:12 3.04311e-05
5 *116:15 *160:12 0.000846399
6 *118:15 *1937:BEN[4] 0.000641049
7 *134:10 *160:12 0.000844752
8 *141:16 *160:12 0.00012139
*RES
1 *1859:X *160:12 43.0321 
2 *160:12 *1937:BEN[4] 19.5625 
*END

*D_NET *161 0.00701886
*CONN
*I *1937:BEN[5] I *D CF_SRAM_1024x32
*I *1860:X O *D sky130_fd_sc_hd__clkbuf_2
*CAP
1 *1937:BEN[5] 0.00137258
2 *1860:X 0.00166363
3 *161:12 0.00303621
4 *1937:BEN[5] *195:12 3.47233e-05
5 *161:12 *166:16 7.70035e-05
6 *161:12 *197:14 3.40946e-05
7 *161:12 *216:33 7.25167e-05
8 *1860:A *161:12 1.28171e-05
9 *116:15 *161:12 6.02022e-05
10 *117:13 *161:12 0.000313801
11 *118:15 *161:12 0.000341276
12 *144:10 *161:12 0
*RES
1 *1860:X *161:12 39.1036 
2 *161:12 *1937:BEN[5] 18.4732 
*END

*D_NET *162 0.0107271
*CONN
*I *1937:BEN[6] I *D CF_SRAM_1024x32
*I *1861:X O *D sky130_fd_sc_hd__buf_2
*CAP
1 *1937:BEN[6] 0.00188412
2 *1861:X 0.0019399
3 *162:10 0.00382402
4 *1937:BEN[6] *194:8 9.953e-05
5 *162:10 *172:28 0.000217422
6 *1861:A *162:10 4.82947e-05
7 *120:24 *162:10 0.00200669
8 *137:16 *162:10 0.00070712
*RES
1 *1861:X *162:10 48.5857 
2 *162:10 *1937:BEN[6] 28.7411 
*END

*D_NET *163 0.0193184
*CONN
*I *1937:AD[3] I *D CF_SRAM_1024x32
*I *1862:X O *D sky130_fd_sc_hd__clkbuf_4
*CAP
1 *1937:AD[3] 0.00139645
2 *1862:X 0.00153697
3 *163:26 0.00244188
4 *163:24 0.00104543
5 *163:22 0.00153697
6 *163:22 *165:18 0.00133784
7 *163:22 *172:28 0.000586786
8 *163:22 *199:16 0.000104353
9 *163:26 *172:28 0.000307797
10 *163:26 *179:24 0.0026468
11 *1937:AD[9] *1937:AD[3] 0
12 *1937:ScanInCC *1937:AD[3] 0.000646208
13 *113:17 *1937:AD[3] 0
14 *135:10 *163:22 0.00133613
15 *135:10 *163:26 0.00379196
16 *141:18 *163:26 0.000602821
*RES
1 *1862:X *163:22 49.6234 
2 *163:22 *163:24 3.41 
3 *163:24 *163:26 48.2411 
4 *163:26 *1937:AD[3] 29.7455 
*END

*D_NET *164 0.0140845
*CONN
*I *1937:BEN[7] I *D CF_SRAM_1024x32
*I *1863:X O *D sky130_fd_sc_hd__buf_2
*CAP
1 *1937:BEN[7] 0.00272157
2 *1863:X 0.00040029
3 *164:27 0
4 *164:22 0.00387395
5 *164:14 0.00155266
6 *164:14 *191:16 0.00068453
7 *164:14 *201:18 0.000542723
8 *164:14 *204:17 9.11048e-06
9 *164:22 *191:12 0.00117181
10 *164:22 *191:16 0.000417233
11 *164:22 *201:18 0.00115612
12 *164:22 *211:11 0.000285678
13 data_o[6] *164:14 0.000115063
14 *1858:A *164:22 0.000117421
15 *1859:A *164:22 5.70045e-05
16 *1873:A *164:22 4.85419e-05
17 *1890:A *1937:BEN[7] 9.31595e-05
18 *1893:A *164:22 0.000119205
19 *1894:A *164:22 0.00011302
20 *121:18 *164:22 0.000605384
*RES
1 *1863:X *164:14 26.2018 
2 *164:14 *164:22 40.7589 
3 *164:22 *1937:BEN[7] 32.5714 
4 *1937:BEN[7] *164:27 0.159091 
*END

*D_NET *165 0.0171763
*CONN
*I *1937:BEN[8] I *D CF_SRAM_1024x32
*I *1864:X O *D sky130_fd_sc_hd__buf_2
*CAP
1 *1937:BEN[8] 0.00199339
2 *1864:X 0.00104413
3 *165:18 0.00347789
4 *165:10 0.00252863
5 *165:10 *167:10 0.00160859
6 *165:10 *209:11 0.00236678
7 *165:18 *172:28 0.000457388
8 *165:18 *179:20 0.000202835
9 *165:18 *199:16 0.000538144
10 *1864:A *165:10 2.969e-05
11 *124:10 *165:10 0.0003955
12 *135:10 *165:18 0.000597464
13 *141:18 *165:18 0.000598069
14 *163:22 *165:18 0.00133784
*RES
1 *1864:X *165:10 47.8 
2 *165:10 *165:18 46.9464 
3 *165:18 *1937:BEN[8] 30.4196 
*END

*D_NET *166 0.0195678
*CONN
*I *1937:BEN[9] I *D CF_SRAM_1024x32
*I *1865:X O *D sky130_fd_sc_hd__buf_2
*CAP
1 *1937:BEN[9] 0.00150712
2 *1865:X 0.00121526
3 *166:20 0.00405771
4 *166:16 0.00468192
5 *166:10 0.0033466
6 *166:16 *197:14 0.000262554
7 *166:16 *228:11 0.000973246
8 *1865:A *166:10 4.77351e-05
9 *116:15 *166:16 0.000241259
10 *117:13 *166:16 0.000283742
11 *134:10 *166:16 0
12 *136:10 *166:20 0.00209165
13 *137:18 *166:20 0.000781965
14 *161:12 *166:16 7.70035e-05
*RES
1 *1865:X *166:10 29.55 
2 *166:10 *166:16 48.5179 
3 *166:16 *166:20 49.8571 
4 *166:20 *1937:BEN[9] 24.6875 
*END

*D_NET *167 0.0235697
*CONN
*I *1937:DI[0] I *D CF_SRAM_1024x32
*I *1866:X O *D sky130_fd_sc_hd__buf_2
*CAP
1 *1937:DI[0] 0.00135589
2 *1866:X 0.000372616
3 *167:24 0.00284835
4 *167:10 0.00289887
5 *167:8 0.00177903
6 *1937:DI[0] *204:9 0
7 *167:10 *171:28 0.000211408
8 *167:10 *179:10 0.00247208
9 *167:10 *209:11 0.000582191
10 *167:24 *172:28 0.00027828
11 *1866:A *167:8 5.45307e-05
12 *1911:A *167:24 0.000469394
13 *1937:ScanInDL *1937:DI[0] 0.00122703
14 *124:10 *167:10 0.00516071
15 *138:28 *167:10 0.000484603
16 *141:18 *167:24 0.00176612
17 *165:10 *167:10 0.00160859
*RES
1 *1866:X *167:8 18.0321 
2 *167:8 *167:10 65.6964 
3 *167:10 *167:24 43.5179 
4 *167:24 *1937:DI[0] 24.5625 
*END

*D_NET *168 0.0263827
*CONN
*I *1937:DI[10] I *D CF_SRAM_1024x32
*I *1867:X O *D sky130_fd_sc_hd__buf_2
*CAP
1 *1937:DI[10] 0.00143098
2 *1867:X 0.000187771
3 *168:10 0.00337563
4 *168:8 0.00213242
5 *1937:DI[10] *205:9 0.0034451
6 *168:10 *210:11 0.00788701
7 *168:10 *211:11 0.00768936
8 *1829:A *1937:DI[10] 0.000186553
9 *1867:A *168:8 4.78664e-05
*RES
1 *1867:X *168:8 15.9786 
2 *168:8 *168:10 98.7857 
3 *168:10 *1937:DI[10] 40.0446 
*END

*D_NET *169 0.0305014
*CONN
*I *1937:DI[11] I *D CF_SRAM_1024x32
*I *1868:X O *D sky130_fd_sc_hd__buf_2
*CAP
1 *1937:DI[11] 0.00172205
2 *1868:X 0.000529333
3 *169:10 0.00432019
4 *169:8 0.00312747
5 *1937:DI[11] *206:11 0.00139268
6 *169:10 *170:10 0.00914665
7 *169:10 *173:22 0.00174443
8 *169:10 *209:11 0
9 *1868:A *169:8 5.45307e-05
10 *112:10 *169:10 0.00828308
11 *133:10 *169:10 0.000181017
*RES
1 *1868:X *169:8 19.675 
2 *169:8 *169:10 116.696 
3 *169:10 *1937:DI[11] 31.0982 
*END

*D_NET *170 0.0337545
*CONN
*I *1937:DI[12] I *D CF_SRAM_1024x32
*I *1869:X O *D sky130_fd_sc_hd__clkbuf_4
*CAP
1 *1937:DI[12] 0.00160168
2 *1869:X 0.000509292
3 *170:10 0.00463372
4 *170:8 0.00354134
5 *1937:DI[12] *208:9 0.0014365
6 *170:10 *172:28 0.00227712
7 *170:10 *209:11 0
8 *112:10 *170:10 0.000310056
9 *135:10 *170:10 0.0102982
10 *141:18 *170:10 0
11 *169:10 *170:10 0.00914665
*RES
1 *1869:X *170:8 19.2643 
2 *170:8 *170:10 133.696 
3 *170:10 *1937:DI[12] 30.7054 
*END

*D_NET *171 0.0355342
*CONN
*I *1937:DI[13] I *D CF_SRAM_1024x32
*I *1870:X O *D sky130_fd_sc_hd__clkbuf_4
*CAP
1 *1937:DI[13] 0.000416746
2 *1870:X 0.000665644
3 *171:28 0.00556315
4 *171:14 0.00581205
5 *1937:DI[13] *209:9 0.000581588
6 *171:14 *211:11 0
7 *171:28 *173:22 0.0122283
8 data_o[12] *171:14 5.7903e-06
9 *1835:A *171:14 0
10 *1870:A *171:14 0.000111339
11 *124:10 *171:28 0.00157431
12 *133:10 *171:28 0.00142394
13 *136:18 *171:28 0
14 *137:10 *171:14 8.84432e-05
15 *138:28 *171:28 0.0068515
16 *167:10 *171:28 0.000211408
*RES
1 *1870:X *171:14 26.5576 
2 *171:14 *171:28 41.5007 
3 *171:28 *1937:DI[13] 10.6161 
*END

*D_NET *172 0.0406905
*CONN
*I *1937:DI[14] I *D CF_SRAM_1024x32
*I *1871:X O *D sky130_fd_sc_hd__clkbuf_4
*CAP
1 *1937:DI[14] 0.000407118
2 *1871:X 0.000680633
3 *172:28 0.00767773
4 *172:14 0.00795124
5 *1937:DI[14] *210:9 0.000586126
6 *172:14 *211:11 0
7 *172:28 *1937:DI[15] 0
8 *172:28 *173:22 0.0156017
9 *172:28 *199:12 0.000140153
10 *172:28 *199:16 0.000273792
11 *172:28 *210:9 0.000101601
12 *1837:A *172:14 7.00569e-06
13 *1871:A *172:14 2.84633e-05
14 *1872:A *172:14 0
15 *120:24 *172:28 0.000222325
16 *135:10 *172:28 0.00199144
17 *138:28 *172:28 1.49122e-05
18 *141:18 *172:28 0.000881411
19 *162:10 *172:28 0.000217422
20 *163:22 *172:28 0.000586786
21 *163:26 *172:28 0.000307797
22 *165:18 *172:28 0.000457388
23 *167:24 *172:28 0.00027828
24 *170:10 *172:28 0.00227712
*RES
1 *1871:X *172:14 22.2923 
2 *172:14 *172:28 44.6536 
3 *172:28 *1937:DI[14] 10.6339 
*END

*D_NET *173 0.0447157
*CONN
*I *1937:DI[15] I *D CF_SRAM_1024x32
*I *1872:X O *D sky130_fd_sc_hd__clkbuf_4
*CAP
1 *1937:DI[15] 0.00120384
2 *1872:X 0.0005638
3 *173:22 0.00531974
4 *173:14 0.0046797
5 *1937:DI[15] *211:9 0.000683853
6 *173:14 *175:20 4.43299e-05
7 *112:10 *173:22 0.00217388
8 *138:28 *173:22 0.000461285
9 *139:12 *173:14 1.08413e-05
10 *169:10 *173:22 0.00174443
11 *171:28 *173:22 0.0122283
12 *172:28 *1937:DI[15] 0
13 *172:28 *173:22 0.0156017
*RES
1 *1872:X *173:14 22.1482 
2 *173:14 *173:22 39.8688 
3 *173:22 *1937:DI[15] 28.4286 
*END

*D_NET *174 0.0196568
*CONN
*I *1937:AD[4] I *D CF_SRAM_1024x32
*I *1873:X O *D sky130_fd_sc_hd__buf_2
*CAP
1 *1937:AD[4] 0.000462467
2 *1873:X 0.00193648
3 *174:10 0.00279838
4 *174:8 0.00427238
5 *1937:AD[4] *1937:AD[5] 0.00128969
6 *174:10 *1937:AD[8] 0.00202806
7 *174:10 *195:12 0.000954662
8 *174:10 *203:20 0.000885612
9 *174:10 *207:14 0
10 *174:10 *216:17 0.000266562
11 *1873:A *174:8 4.82865e-05
12 *1910:A *174:10 0.000441093
13 *1937:AD[2] *174:10 0.00175003
14 *1937:BEN[2] *174:10 0.000667374
15 *156:16 *174:10 0.00185574
*RES
1 *1873:X *174:8 33.2286 
2 *174:8 *174:10 71.4643 
3 *174:10 *1937:AD[4] 17.3795 
*END

*D_NET *175 0.00634147
*CONN
*I *1937:DI[16] I *D CF_SRAM_1024x32
*I *1874:X O *D sky130_fd_sc_hd__clkbuf_2
*CAP
1 *1937:DI[16] 0.00100225
2 *1874:X 0.00180721
3 *175:20 0.00280947
4 *1937:DI[16] *212:9 0.000281594
5 *175:20 *234:DIODE 0.000143375
6 *175:20 *210:19 4.17433e-05
7 *175:20 *211:11 0
8 data_o[14] *175:20 1.00332e-05
9 data_o[15] *175:20 0.000115063
10 *1837:A *175:20 8.63936e-05
11 *139:12 *175:20 0
12 *173:14 *175:20 4.43299e-05
*RES
1 *1874:X *175:20 47.6125 
2 *175:20 *1937:DI[16] 16.6875 
*END

*D_NET *176 0.0067271
*CONN
*I *1937:DI[17] I *D CF_SRAM_1024x32
*I *1875:X O *D sky130_fd_sc_hd__clkbuf_2
*CAP
1 *1937:DI[17] 0.0020459
2 *1875:X 0.000593112
3 *176:12 0.00263901
4 *1937:DI[17] *213:13 9.25426e-05
5 *176:12 *1921:A 0.00043609
6 *176:12 *213:13 0.000177867
7 *176:12 *214:11 2.81946e-05
8 *1875:A *176:12 5.65955e-05
9 *1937:WLBI *1937:DI[17] 0
10 *1937:CLKin *1937:DI[17] 0.000551946
11 *139:12 *176:12 0.000105852
*RES
1 *1875:X *176:12 30.7286 
2 *176:12 *1937:DI[17] 30.0179 
*END

*D_NET *177 0.00567837
*CONN
*I *1937:DI[18] I *D CF_SRAM_1024x32
*I *1876:X O *D sky130_fd_sc_hd__clkbuf_2
*CAP
1 *1937:DI[18] 0.00125023
2 *1876:X 0.00137038
3 *177:12 0.00262061
4 *1937:DI[18] *214:11 0
5 *177:12 *215:13 0.000416361
6 *1876:A *177:12 2.07878e-05
7 *1937:BEN[18] *1937:DI[18] 0
*RES
1 *1876:X *177:12 36.7286 
2 *177:12 *1937:DI[18] 21.5714 
*END

*D_NET *178 0.00481675
*CONN
*I *1937:DI[19] I *D CF_SRAM_1024x32
*I *1877:X O *D sky130_fd_sc_hd__clkbuf_2
*CAP
1 *1937:DI[19] 0.0012493
2 *1877:X 0.00110895
3 *178:12 0.00235824
4 *1937:DI[19] *215:13 0
5 *1877:A *178:12 0.000100262
6 *1937:BEN[19] *1937:DI[19] 0
*RES
1 *1877:X *178:12 35.3179 
2 *178:12 *1937:DI[19] 21.5536 
*END

*D_NET *179 0.0192665
*CONN
*I *1937:DI[1] I *D CF_SRAM_1024x32
*I *1878:X O *D sky130_fd_sc_hd__buf_2
*CAP
1 *1937:DI[1] 0.00165988
2 *1878:X 0.00105254
3 *179:24 0.00235778
4 *179:20 0.00111817
5 *179:10 0.00147282
6 *1937:DI[1] *216:17 0
7 *179:10 *209:11 0.00247036
8 *1878:A *179:10 3.42509e-05
9 *1908:A *179:20 0.000165123
10 *135:10 *179:20 0.000305147
11 *135:10 *179:24 2.00756e-05
12 *138:28 *179:10 0.000542089
13 *141:18 *179:20 4.78647e-05
14 *141:18 *179:24 0.00269864
15 *163:26 *179:24 0.0026468
16 *165:18 *179:20 0.000202835
17 *167:10 *179:10 0.00247208
*RES
1 *1878:X *179:10 49.3179 
2 *179:10 *179:20 16.8661 
3 *179:20 *179:24 38.7768 
4 *179:24 *1937:DI[1] 25.8839 
*END

*D_NET *180 0.00522897
*CONN
*I *1937:DI[20] I *D CF_SRAM_1024x32
*I *1879:X O *D sky130_fd_sc_hd__clkbuf_2
*CAP
1 *1937:DI[20] 0.00130142
2 *1879:X 0.00104702
3 *180:12 0.00234845
4 *180:12 *217:15 0.000128161
5 *1879:A *180:12 1.48543e-05
6 *1937:BEN[20] *1937:DI[20] 0
7 *1937:BEN[20] *180:12 0.000389064
*RES
1 *1879:X *180:12 31.5679 
2 *180:12 *1937:DI[20] 21.8393 
*END

*D_NET *181 0.00521599
*CONN
*I *1937:DI[21] I *D CF_SRAM_1024x32
*I *1880:X O *D sky130_fd_sc_hd__clkbuf_2
*CAP
1 *1937:DI[21] 0.00257995
2 *1880:X 0.00257995
3 *1937:DI[21] *219:6 0
4 *1937:DI[21] *219:22 0
5 *1880:A *1937:DI[21] 5.60962e-05
*RES
1 *1880:X *1937:DI[21] 41.7107 
*END

*D_NET *182 0.00617936
*CONN
*I *1937:DI[22] I *D CF_SRAM_1024x32
*I *1881:X O *D sky130_fd_sc_hd__clkbuf_2
*CAP
1 *1937:DI[22] 0.00196613
2 *1881:X 0.00196613
3 *1937:DI[22] *220:17 0.00221623
4 *1881:A *1937:DI[22] 3.08664e-05
*RES
1 *1881:X *1937:DI[22] 41.4429 
*END

*D_NET *183 0.00564604
*CONN
*I *1937:DI[23] I *D CF_SRAM_1024x32
*I *1882:X O *D sky130_fd_sc_hd__clkbuf_2
*CAP
1 *1937:DI[23] 0.00111993
2 *1882:X 0.000816876
3 *183:12 0.00193681
4 *1937:DI[23] *1929:A 0.00175757
5 *1882:A *183:12 1.48543e-05
*RES
1 *1882:X *183:12 28.4786 
2 *183:12 *1937:DI[23] 24.6607 
*END

*D_NET *184 0.00592668
*CONN
*I *1937:DI[24] I *D CF_SRAM_1024x32
*I *1883:X O *D sky130_fd_sc_hd__clkbuf_2
*CAP
1 *1937:DI[24] 0.00113758
2 *1883:X 0.000691424
3 *184:12 0.00182901
4 *1937:DI[24] *222:17 0.00189814
5 *1883:A *184:12 0.000100262
6 *1937:BEN[23] *184:12 0.000270264
*RES
1 *1883:X *184:12 31.925 
2 *184:12 *1937:DI[24] 24.6786 
*END

*D_NET *185 0.0152111
*CONN
*I *1937:AD[5] I *D CF_SRAM_1024x32
*I *1884:X O *D sky130_fd_sc_hd__buf_2
*CAP
1 *1937:AD[5] 0.0018197
2 *1884:X 9.48234e-05
3 *185:10 0.00359366
4 *185:8 0.00186878
5 *1937:AD[5] *231:DIODE 2.59355e-05
6 *1937:AD[5] *1916:A 9.83442e-05
7 *1937:AD[5] *1937:AD[6] 0
8 *185:10 *201:10 0.000522096
9 *185:10 *201:18 0.00202437
10 *185:10 *204:17 0.000103898
11 *185:10 *211:11 0.00136471
12 data_o[10] *185:10 5.51753e-05
13 data_o[11] *185:10 5.57632e-05
14 data_o[8] *185:10 0.000163442
15 data_o[9] *185:10 5.57632e-05
16 *1830:A *185:10 0.000165494
17 *1832:A *185:10 0.000165001
18 *1861:A *185:10 0.000139886
19 *1863:A *185:10 0.000117421
20 *1865:A *185:10 0.000179238
21 *1867:A *185:10 0.000186884
22 *1868:A *185:10 0.000162572
23 *1895:A *185:10 0.000165494
24 *1896:A *185:10 0.000134893
25 *1897:A *185:10 0.000165001
26 *1898:A *185:10 0.000165001
27 *1899:A *185:10 0.000162572
28 *1904:A *185:10 0.000165494
29 *1937:AD[4] *1937:AD[5] 0.00128969
*RES
1 *1884:X *185:8 14.7464 
2 *185:8 *185:10 59.9286 
3 *185:10 *1937:AD[5] 37.558 
*END

*D_NET *186 0.00561473
*CONN
*I *1937:DI[25] I *D CF_SRAM_1024x32
*I *1885:X O *D sky130_fd_sc_hd__clkbuf_2
*CAP
1 *1937:DI[25] 0.00126451
2 *1885:X 0.00104476
3 *186:12 0.00230927
4 *1937:DI[25] *223:15 0.00067278
5 *186:12 *223:15 0.000308558
6 *1885:A *186:12 1.48543e-05
*RES
1 *1885:X *186:12 33.3357 
2 *186:12 *1937:DI[25] 24.6964 
*END

*D_NET *187 0.00677464
*CONN
*I *1937:DI[26] I *D CF_SRAM_1024x32
*I *1886:X O *D sky130_fd_sc_hd__clkbuf_2
*CAP
1 *1937:DI[26] 0.00241562
2 *1886:X 0.000517078
3 *187:12 0.0029327
4 *187:12 *225:15 2.93215e-05
5 *1886:A *187:12 3.08664e-05
6 *151:12 *187:12 0.000753183
7 *153:12 *187:12 9.58779e-05
*RES
1 *1886:X *187:12 29.9071 
2 *187:12 *1937:DI[26] 30.5714 
*END

*D_NET *188 0.00762818
*CONN
*I *1937:DI[27] I *D CF_SRAM_1024x32
*I *1887:X O *D sky130_fd_sc_hd__clkbuf_2
*CAP
1 *1937:DI[27] 0.00206849
2 *1887:X 0.000404153
3 *188:10 0.00247264
4 *1937:DI[27] *225:15 0.00133509
5 data_o[27] *188:10 0
6 data_o[28] *188:10 0.000136662
7 *1854:A *1937:DI[27] 4.82865e-05
8 *153:12 *188:10 0.000946325
9 *154:12 *188:10 0.000216523
*RES
1 *1887:X *188:10 30.5679 
2 *188:10 *1937:DI[27] 32.2321 
*END

*D_NET *189 0.00772895
*CONN
*I *1937:DI[28] I *D CF_SRAM_1024x32
*I *1888:X O *D sky130_fd_sc_hd__buf_2
*CAP
1 *1937:DI[28] 0.0019216
2 *1888:X 0.000812699
3 *189:12 0.0027343
4 *1937:DI[28] *226:11 0.00162192
5 *189:12 *190:12 0.000287089
6 *189:12 *192:12 9.11048e-06
7 *189:12 *225:15 0.000139523
8 *189:12 *226:11 0
9 *1888:A *189:12 4.58194e-05
10 *151:12 *189:12 9.11048e-06
11 *153:12 *189:12 0.000147792
*RES
1 *1888:X *189:12 34.7643 
2 *189:12 *1937:DI[28] 30.6071 
*END

*D_NET *190 0.00887926
*CONN
*I *1937:DI[29] I *D CF_SRAM_1024x32
*I *1889:X O *D sky130_fd_sc_hd__buf_2
*CAP
1 *1937:DI[29] 0.00183966
2 *1889:X 0.000672355
3 *190:12 0.00251201
4 *1937:DI[29] *227:11 0.00164923
5 *190:12 *192:12 3.26934e-05
6 *190:12 *226:11 9.21958e-05
7 *190:12 *227:11 0.00111317
8 *1889:A *190:12 3.29284e-05
9 *1905:A *190:12 0.000647933
10 *189:12 *190:12 0.000287089
*RES
1 *1889:X *190:12 38.0143 
2 *190:12 *1937:DI[29] 29.8036 
*END

*D_NET *191 0.0146913
*CONN
*I *1937:DI[2] I *D CF_SRAM_1024x32
*I *1890:X O *D sky130_fd_sc_hd__buf_2
*CAP
1 *1937:DI[2] 0.00241733
2 *1890:X 0.000807731
3 *191:16 0.00313712
4 *191:12 0.00152753
5 *1937:DI[2] *228:11 0.000271612
6 *191:12 *206:17 0.000115063
7 *191:12 *206:19 6.47632e-05
8 *191:16 *204:17 0.000499678
9 data_o[2] *191:12 7.70035e-05
10 *1862:A *191:12 6.82348e-05
11 *1890:A *191:12 2.07878e-05
12 *1911:A *1937:DI[2] 0.000392195
13 *121:18 *191:12 0.000197789
14 *121:26 *191:12 0.000627266
15 *121:26 *191:16 0.0021936
16 *164:14 *191:16 0.00068453
17 *164:22 *191:12 0.00117181
18 *164:22 *191:16 0.000417233
*RES
1 *1890:X *191:12 37.7911 
2 *191:12 *191:16 32.8304 
3 *191:16 *1937:DI[2] 31.5268 
*END

*D_NET *192 0.00914479
*CONN
*I *1937:DI[30] I *D CF_SRAM_1024x32
*I *1891:X O *D sky130_fd_sc_hd__buf_2
*CAP
1 *1937:DI[30] 0.001931
2 *1891:X 0.000725998
3 *192:12 0.002657
4 *192:12 *193:12 0.000949018
5 data_o[30] *192:12 2.16394e-05
6 data_o[31] *192:12 3.3524e-05
7 *1891:A *192:12 5.45307e-05
8 *1905:A *192:12 0.000227669
9 *1906:A *192:12 0.000808949
10 *114:9 *1937:DI[30] 0.00169366
11 *189:12 *192:12 9.11048e-06
12 *190:12 *192:12 3.26934e-05
*RES
1 *1891:X *192:12 39.2107 
2 *192:12 *1937:DI[30] 31.0536 
*END

*D_NET *193 0.00948271
*CONN
*I *1937:DI[31] I *D CF_SRAM_1024x32
*I *1892:X O *D sky130_fd_sc_hd__buf_2
*CAP
1 *1937:DI[31] 0.00186955
2 *1892:X 0.0008903
3 *193:12 0.00275985
4 *1892:A *193:12 3.67252e-05
5 *1905:A *193:12 0.000901796
6 *1906:A *193:12 0.000353587
7 *115:9 *1937:DI[31] 0.00172187
8 *192:12 *193:12 0.000949018
*RES
1 *1892:X *193:12 42.05 
2 *193:12 *1937:DI[31] 30.6607 
*END

*D_NET *194 0.0124386
*CONN
*I *1937:DI[3] I *D CF_SRAM_1024x32
*I *1893:X O *D sky130_fd_sc_hd__buf_2
*CAP
1 *1937:DI[3] 0.00127391
2 *1893:X 0.00199348
3 *194:8 0.00326738
4 *1937:DI[3] *203:20 0.000245676
5 *1937:DI[3] *216:17 0.000289963
6 *1937:DI[3] *228:23 0.00116879
7 *1893:A *194:8 4.82865e-05
8 *1937:BEN[2] *1937:DI[3] 1.9814e-05
9 *1937:BEN[3] *1937:DI[3] 0.00219942
10 *1937:BEN[6] *194:8 9.953e-05
11 *116:9 *1937:DI[3] 0.000369363
12 *119:27 *1937:DI[3] 0.000905328
13 *152:40 *1937:DI[3] 0.000396654
14 *156:16 *1937:DI[3] 0.000161044
*RES
1 *1893:X *194:8 34.4607 
2 *194:8 *1937:DI[3] 49.5089 
*END

*D_NET *195 0.00828818
*CONN
*I *1937:DI[4] I *D CF_SRAM_1024x32
*I *1894:X O *D sky130_fd_sc_hd__clkbuf_2
*CAP
1 *1937:DI[4] 0.000973669
2 *1894:X 0.00255727
3 *195:12 0.00353094
4 *195:12 *203:20 0.000183617
5 *1894:A *195:12 5.33005e-05
6 *1937:BEN[5] *195:12 3.47233e-05
7 *117:13 *1937:DI[4] 0
8 *174:10 *195:12 0.000954662
*RES
1 *1894:X *195:12 49.5857 
2 *195:12 *1937:DI[4] 14.9375 
*END

*D_NET *196 0.0137081
*CONN
*I *1937:AD[6] I *D CF_SRAM_1024x32
*I *1895:X O *D sky130_fd_sc_hd__buf_2
*CAP
1 *1937:AD[6] 0.00264816
2 *1895:X 0.000284498
3 *196:10 0.00380364
4 *196:8 0.00143998
5 *1937:AD[6] *1937:AD[7] 0.000401982
6 *196:10 *200:14 0.0018432
7 *196:10 *205:11 0.00021125
8 *196:10 *210:11 0.00191012
9 *1833:A *1937:AD[6] 0.000235338
10 *1833:A *196:10 9.53267e-05
11 *1864:A *196:10 7.04329e-05
12 *1895:A *196:8 4.00679e-05
13 *1903:A *196:10 4.5539e-05
14 *1937:AD[5] *1937:AD[6] 0
15 *122:30 *196:10 0.000566415
16 *134:8 *1937:AD[6] 0.000112109
17 *138:10 *196:10 0
*RES
1 *1895:X *196:8 17.2107 
2 *196:8 *196:10 46.2679 
3 *196:10 *1937:AD[6] 40.567 
*END

*D_NET *197 0.00695699
*CONN
*I *1937:DI[5] I *D CF_SRAM_1024x32
*I *1896:X O *D sky130_fd_sc_hd__clkbuf_2
*CAP
1 *1937:DI[5] 0.00111929
2 *1896:X 0.00174152
3 *197:14 0.00286081
4 *1937:DI[5] *228:23 0.000421074
5 *197:14 *228:11 0.000333986
6 *197:14 *228:23 3.45371e-05
7 *1896:A *197:14 5.49489e-05
8 *118:15 *1937:DI[5] 0
9 *152:22 *1937:DI[5] 9.41642e-05
10 *161:12 *197:14 3.40946e-05
11 *166:16 *197:14 0.000262554
*RES
1 *1896:X *197:14 39.1393 
2 *197:14 *1937:DI[5] 16.6339 
*END

*D_NET *198 0.0101177
*CONN
*I *1937:DI[6] I *D CF_SRAM_1024x32
*I *1897:X O *D sky130_fd_sc_hd__buf_2
*CAP
1 *1937:DI[6] 0.000983226
2 *1897:X 0.00264691
3 *198:14 0.00363014
4 *1897:A *198:14 4.82947e-05
5 *1937:BEN[3] *1937:DI[6] 0.000795875
6 *1937:BEN[3] *198:14 1.53472e-05
7 *119:27 *1937:DI[6] 0.000573315
8 *144:24 *198:14 0.000271036
9 *152:22 *1937:DI[6] 0.000129386
10 *152:40 *198:14 0.00102422
*RES
1 *1897:X *198:14 49.5768 
2 *198:14 *1937:DI[6] 26.9643 
*END

*D_NET *199 0.015198
*CONN
*I *1937:DI[7] I *D CF_SRAM_1024x32
*I *1898:X O *D sky130_fd_sc_hd__buf_2
*CAP
1 *1937:DI[7] 0.0011563
2 *1898:X 0.00143581
3 *199:16 0.00192058
4 *199:12 0.00220009
5 *1898:A *199:12 4.82947e-05
6 *1911:A *199:12 0.000889989
7 *120:12 *1937:DI[7] 0.00239482
8 *120:24 *199:16 0.00251707
9 *141:18 *199:12 1.09026e-05
10 *141:18 *199:16 0.00156767
11 *163:22 *199:16 0.000104353
12 *165:18 *199:16 0.000538144
13 *172:28 *199:12 0.000140153
14 *172:28 *199:16 0.000273792
*RES
1 *1898:X *199:12 35.7196 
2 *199:12 *199:16 37.5625 
3 *199:16 *1937:DI[7] 24.3661 
*END

*D_NET *200 0.0193153
*CONN
*I *1937:DI[8] I *D CF_SRAM_1024x32
*I *1899:X O *D sky130_fd_sc_hd__buf_2
*CAP
1 *1937:DI[8] 0.00134333
2 *1899:X 0.000719097
3 *200:20 0.00201173
4 *200:14 0.0013875
5 *200:20 *201:22 0.00198916
6 *200:20 *205:11 0.000612031
7 *200:20 *210:11 9.99931e-06
8 data_o[4] *200:20 5.58875e-06
9 *1851:A *1937:DI[8] 0.00014449
10 *1864:A *200:14 9.53247e-06
11 *1899:A *200:14 7.02611e-05
12 *121:18 *1937:DI[8] 0.00200496
13 *122:20 *200:20 0.0020361
14 *122:24 *200:20 0.00113215
15 *122:30 *200:14 0.00184491
16 *152:8 *1937:DI[8] 0.00215129
17 *196:10 *200:14 0.0018432
*RES
1 *1899:X *200:14 46.05 
2 *200:14 *200:20 48.2857 
3 *200:20 *1937:DI[8] 36.2946 
*END

*D_NET *201 0.0215607
*CONN
*I *1937:DI[9] I *D CF_SRAM_1024x32
*I *1900:X O *D sky130_fd_sc_hd__buf_2
*CAP
1 *1937:DI[9] 0.00234053
2 *1900:X 0.000571724
3 *201:22 0.00309595
4 *201:18 0.00176833
5 *201:10 0.00158464
6 *201:10 *204:17 0.00126368
7 *201:18 *204:17 0.000145789
8 *201:18 *211:11 0.000142778
9 *201:22 *205:11 1.69115e-05
10 *201:22 *210:11 0.00135158
11 data_o[3] *201:22 0.000118506
12 data_o[4] *201:18 0
13 data_o[6] *201:18 0.000113647
14 data_o[7] *201:18 0.000111339
15 data_o[8] *201:10 0.000162142
16 *1843:A *201:22 9.53267e-05
17 *1890:A *201:22 9.53267e-05
18 *1894:A *201:18 1.33343e-05
19 *122:12 *1937:DI[9] 0.00191809
20 *122:20 *201:18 6.05161e-06
21 *122:20 *201:22 0.000410563
22 *164:14 *201:18 0.000542723
23 *164:22 *201:18 0.00115612
24 *185:10 *201:10 0.000522096
25 *185:10 *201:18 0.00202437
26 *200:20 *201:22 0.00198916
*RES
1 *1900:X *201:10 31.0054 
2 *201:10 *201:18 43.5446 
3 *201:18 *201:22 39.2321 
4 *201:22 *1937:DI[9] 35.5982 
*END

*D_NET *202 0.0299878
*CONN
*I *1937:EN I *D CF_SRAM_1024x32
*I *1901:X O *D sky130_fd_sc_hd__clkbuf_4
*CAP
1 *1937:EN 0.000889579
2 *1901:X 0.00784517
3 *202:18 0.00873475
4 *202:18 *203:20 0.0101799
5 *202:18 *206:11 5.58875e-06
6 *202:18 *211:11 0
7 *202:18 *216:33 0.00118276
8 *1901:A *202:18 5.4753e-05
9 *1902:A *202:18 6.67536e-05
10 *1937:WLOFF *1937:EN 0.00102858
11 *43:11 *202:18 0
*RES
1 *1901:X *202:18 49.9951 
2 *202:18 *1937:EN 19.1732 
*END

*D_NET *203 0.0298493
*CONN
*I *1937:R_WB I *D CF_SRAM_1024x32
*I *1902:X O *D sky130_fd_sc_hd__clkbuf_4
*CAP
1 *1937:R_WB 0.000679622
2 *1902:X 0.00708746
3 *203:20 0.00776708
4 *203:20 *1937:AD[8] 0.000352222
5 *203:20 *211:11 0
6 *203:20 *228:23 0.000106304
7 *1902:A *203:20 6.35933e-05
8 *1937:AD[0] *1937:R_WB 9.25426e-05
9 *1937:AD[2] *203:20 0.000486494
10 *1937:WLOFF *1937:R_WB 0
11 *1937:BEN[2] *203:20 0.000130458
12 *1937:DI[3] *203:20 0.000245676
13 *119:27 *203:20 0.000139372
14 *134:20 *203:20 0.000465466
15 *136:18 *203:20 0.000403995
16 *152:40 *203:20 0.000133665
17 *156:16 *203:20 0.000446183
18 *174:10 *203:20 0.000885612
19 *195:12 *203:20 0.000183617
20 *202:18 *203:20 0.0101799
*RES
1 *1902:X *203:20 49.2008 
2 *203:20 *1937:R_WB 21.218 
*END

*D_NET *204 0.0215534
*CONN
*I *229:DIODE I *D sky130_fd_sc_hd__diode_2
*I *1914:A I *D sky130_fd_sc_hd__buf_2
*I *1937:DO[0] O *D CF_SRAM_1024x32
*CAP
1 *229:DIODE 0
2 *1914:A 0.000148906
3 *1937:DO[0] 0.00194874
4 *204:21 0.000148906
5 *204:19 0.00157971
6 *204:17 0.00264868
7 *204:9 0.00301771
8 *204:17 *206:19 7.5305e-05
9 *204:19 *206:19 0.000611149
10 *204:19 *208:11 0.00475358
11 data_o[7] *204:17 0.000112686
12 data_o[9] *204:17 0.000115063
13 *1832:A *204:9 5.49489e-05
14 *1840:A *204:19 2.92927e-05
15 *1863:A *204:17 1.58163e-05
16 *1884:A *204:19 0.000163269
17 *1937:ScanInCC *204:9 0.000103883
18 *1937:DI[0] *204:9 0
19 *113:12 *204:17 0.000339238
20 *121:26 *204:17 0.000346236
21 *133:8 *204:9 0.000142362
22 *137:10 *204:19 0.000758881
23 *141:10 *204:19 0.00241692
24 *164:14 *204:17 9.11048e-06
25 *185:10 *204:17 0.000103898
26 *191:16 *204:17 0.000499678
27 *201:10 *204:17 0.00126368
28 *201:18 *204:17 0.000145789
*RES
1 *1937:DO[0] *204:9 36.0268 
2 *204:9 *204:17 38.9286 
3 *204:17 *204:19 61.75 
4 *204:19 *204:21 4.5 
5 *204:21 *1914:A 11.8 
6 *204:21 *229:DIODE 9.3 
*END

*D_NET *205 0.023965
*CONN
*I *1915:A I *D sky130_fd_sc_hd__buf_2
*I *230:DIODE I *D sky130_fd_sc_hd__diode_2
*I *1937:DO[10] O *D CF_SRAM_1024x32
*CAP
1 *1915:A 0
2 *230:DIODE 8.72433e-05
3 *1937:DO[10] 0.00168173
4 *205:15 0.000438124
5 *205:11 0.00285032
6 *205:9 0.00418117
7 *205:11 *210:11 0
8 *1829:A *205:9 2.94636e-05
9 *1831:A *205:11 0
10 *1833:A *205:15 0
11 *1937:AD[9] *230:DIODE 4.58194e-05
12 *1937:DI[10] *205:9 0.0034451
13 *112:8 *205:9 0.000477618
14 *122:20 *205:11 0.00284472
15 *122:24 *205:11 8.41555e-06
16 *122:30 *205:11 0.00298335
17 *138:10 *205:11 0.00405173
18 *196:10 *205:11 0.00021125
19 *200:20 *205:11 0.000612031
20 *201:22 *205:11 1.69115e-05
*RES
1 *1937:DO[10] *205:9 41.4375 
2 *205:9 *205:11 101.518 
3 *205:11 *205:15 9.96429 
4 *205:15 *230:DIODE 10.6571 
5 *205:15 *1915:A 9.3 
*END

*D_NET *206 0.0255831
*CONN
*I *1916:A I *D sky130_fd_sc_hd__buf_2
*I *231:DIODE I *D sky130_fd_sc_hd__diode_2
*I *1937:DO[11] O *D CF_SRAM_1024x32
*CAP
1 *1916:A 8.59865e-05
2 *231:DIODE 4.70928e-05
3 *1937:DO[11] 0.00215392
4 *206:19 0.0023294
5 *206:17 0.00332782
6 *206:11 0.00328541
7 *206:11 *208:11 0.000338709
8 *206:11 *211:11 0
9 *206:17 *211:11 0
10 data_o[0] *206:17 5.8024e-05
11 data_o[1] *206:17 3.3524e-05
12 data_o[2] *206:17 1.95891e-05
13 *1840:A *206:17 0.000135249
14 *1862:A *206:19 0.000138903
15 *1884:A *206:19 0.000160202
16 *1901:A *206:11 0.000138599
17 *1902:A *206:11 0.000185812
18 *1937:AD[5] *231:DIODE 2.59355e-05
19 *1937:AD[5] *1916:A 9.83442e-05
20 *1937:DI[11] *206:11 0.00139268
21 *113:12 *206:19 0.00110033
22 *121:18 *206:17 9.93481e-05
23 *121:26 *206:19 0.0041691
24 *137:10 *1916:A 6.99972e-05
25 *137:10 *206:19 0.00374572
26 *141:10 *206:17 0.000383424
27 *141:10 *206:19 0.00118808
28 *191:12 *206:17 0.000115063
29 *191:12 *206:19 6.47632e-05
30 *202:18 *206:11 5.58875e-06
31 *204:17 *206:19 7.5305e-05
32 *204:19 *206:19 0.000611149
*RES
1 *1937:DO[11] *206:11 49.5069 
2 *206:11 *206:17 23.7143 
3 *206:17 *206:19 82.2411 
4 *206:19 *231:DIODE 14.3357 
5 *206:19 *1916:A 15.7821 
*END

*D_NET *207 0.0105496
*CONN
*I *1937:AD[7] I *D CF_SRAM_1024x32
*I *1903:X O *D sky130_fd_sc_hd__buf_2
*CAP
1 *1937:AD[7] 0.000470382
2 *1903:X 0.00147762
3 *207:14 0.00187125
4 *207:10 0.00287848
5 *1937:AD[7] *1937:AD[8] 0.000116818
6 *207:14 *1937:AD[8] 0.000425958
7 *1903:A *207:10 9.66977e-05
8 *1937:AD[6] *1937:AD[7] 0.000401982
9 *1937:AD[9] *1937:AD[7] 0
10 *116:9 *207:10 0.000722547
11 *144:24 *207:14 0.000531021
12 *152:40 *207:14 0.0015569
13 *174:10 *207:14 0
*RES
1 *1903:X *207:10 35.3 
2 *207:10 *207:14 41.3571 
3 *207:14 *1937:AD[7] 12.2634 
*END

*D_NET *208 0.0290338
*CONN
*I *1917:A I *D sky130_fd_sc_hd__clkbuf_4
*I *232:DIODE I *D sky130_fd_sc_hd__diode_2
*I *1937:DO[12] O *D CF_SRAM_1024x32
*CAP
1 *1917:A 0.000148355
2 *232:DIODE 0
3 *1937:DO[12] 0.001294
4 *208:13 0.000148355
5 *208:11 0.00360623
6 *208:9 0.00490023
7 *208:11 *209:11 0.0106226
8 *1937:DI[12] *208:9 0.0014365
9 *137:10 *208:11 0.00178517
10 *204:19 *208:11 0.00475358
11 *206:11 *208:11 0.000338709
*RES
1 *1937:DO[12] *208:9 33.5341 
2 *208:9 *208:11 135.518 
3 *208:11 *208:13 4.5 
4 *208:13 *232:DIODE 9.3 
5 *208:13 *1917:A 11.4964 
*END

*D_NET *209 0.030245
*CONN
*I *1918:A I *D sky130_fd_sc_hd__clkbuf_4
*I *233:DIODE I *D sky130_fd_sc_hd__diode_2
*I *1937:DO[13] O *D CF_SRAM_1024x32
*CAP
1 *1918:A 0.000200209
2 *233:DIODE 0
3 *1937:DO[13] 0.00156989
4 *209:13 0.000200209
5 *209:11 0.00470938
6 *209:9 0.00627927
7 *1900:A *209:11 0.000113776
8 *1937:DI[13] *209:9 0.000581588
9 *112:10 *209:11 0
10 *124:10 *209:11 0.000335413
11 *133:10 *209:11 0
12 *135:10 *209:11 0
13 *137:10 *209:11 0.000213294
14 *165:10 *209:11 0.00236678
15 *167:10 *209:11 0.000582191
16 *169:10 *209:11 0
17 *170:10 *209:11 0
18 *179:10 *209:11 0.00247036
19 *208:11 *209:11 0.0106226
*RES
1 *1937:DO[13] *209:9 33.0989 
2 *209:9 *209:11 152.518 
3 *209:11 *209:13 4.5 
4 *209:13 *233:DIODE 9.3 
5 *209:13 *1918:A 12.5143 
*END

*D_NET *210 0.0308082
*CONN
*I *1919:A I *D sky130_fd_sc_hd__buf_2
*I *234:DIODE I *D sky130_fd_sc_hd__diode_2
*I *1937:DO[14] O *D CF_SRAM_1024x32
*CAP
1 *1919:A 0
2 *234:DIODE 4.74127e-05
3 *1937:DO[14] 0.00191556
4 *210:19 0.000638794
5 *210:11 0.00488622
6 *210:9 0.00621039
7 *210:11 *211:11 0.00257254
8 *210:19 *211:11 0.000776588
9 data_o[13] *210:19 4.75911e-05
10 data_o[3] *210:11 0.000120558
11 data_o[4] *210:11 0.000120558
12 data_o[5] *210:11 4.75911e-05
13 *1829:A *210:11 7.24849e-05
14 *1831:A *210:11 0.000191742
15 *1833:A *210:11 9.73787e-05
16 *1836:A *210:19 7.75477e-05
17 *1843:A *210:11 9.73787e-05
18 *1860:A *210:11 0.00019575
19 *1864:A *210:11 7.24849e-05
20 *1890:A *210:11 9.73787e-05
21 *1903:A *210:11 4.75911e-05
22 *1937:DI[14] *210:9 0.000586126
23 *122:24 *210:11 0.000443135
24 *122:30 *210:11 0
25 *138:10 *210:11 0
26 *138:10 *210:19 0
27 *168:10 *210:11 0.00788701
28 *172:28 *210:9 0.000101601
29 *175:20 *234:DIODE 0.000143375
30 *175:20 *210:19 4.17433e-05
31 *196:10 *210:11 0.00191012
32 *200:20 *210:11 9.99931e-06
33 *201:22 *210:11 0.00135158
34 *205:11 *210:11 0
*RES
1 *1937:DO[14] *210:9 38.8482 
2 *210:9 *210:11 160.259 
3 *210:11 *210:19 18.0268 
4 *210:19 *234:DIODE 10.6571 
5 *210:19 *1919:A 9.3 
*END

*D_NET *211 0.034676
*CONN
*I *1920:A I *D sky130_fd_sc_hd__buf_2
*I *235:DIODE I *D sky130_fd_sc_hd__diode_2
*I *1937:DO[15] O *D CF_SRAM_1024x32
*CAP
1 *1920:A 0
2 *235:DIODE 8.63159e-05
3 *1937:DO[15] 0.00180633
4 *211:17 0.000307365
5 *211:11 0.00684259
6 *211:9 0.00842787
7 data_o[0] *211:11 0
8 data_o[12] *211:11 3.69178e-05
9 data_o[14] *211:11 0
10 data_o[15] *211:11 0
11 data_o[1] *211:11 3.69178e-05
12 *1830:A *211:11 0.000163442
13 *1832:A *211:11 0.000162918
14 *1834:A *211:11 0
15 *1835:A *211:11 0.000188847
16 *1851:A *211:11 0.000162735
17 *1855:A *211:11 0.000187812
18 *1858:A *211:11 0.000115369
19 *1859:A *211:11 0.000187261
20 *1861:A *211:11 0.000137834
21 *1863:A *211:11 0.000115369
22 *1865:A *211:11 0.00017718
23 *1866:A *211:11 0.000162918
24 *1867:A *211:11 0.000184832
25 *1868:A *211:11 0.000160489
26 *1869:A *211:11 0
27 *1871:A *211:11 0
28 *1873:A *211:11 0.000163442
29 *1878:A *211:11 0.000162918
30 *1893:A *211:11 0.000160069
31 *1894:A *211:11 3.86844e-05
32 *1895:A *211:11 0.000163442
33 *1896:A *211:11 0.000132954
34 *1897:A *211:11 0.000162918
35 *1898:A *211:11 0.000162918
36 *1899:A *211:11 0.000160489
37 *1901:A *211:11 0
38 *1902:A *211:11 0
39 *1904:A *211:11 0.000163442
40 *1937:DI[15] *211:9 0.000683853
41 *121:18 *211:11 3.78516e-05
42 *137:10 *211:11 0
43 *138:10 *211:11 0
44 *164:22 *211:11 0.000285678
45 *168:10 *211:11 0.00768936
46 *171:14 *211:11 0
47 *172:14 *211:11 0
48 *175:20 *211:11 0
49 *185:10 *211:11 0.00136471
50 *201:18 *211:11 0.000142778
51 *202:18 *211:11 0
52 *203:20 *211:11 0
53 *206:11 *211:11 0
54 *206:17 *211:11 0
55 *210:11 *211:11 0.00257254
56 *210:19 *211:11 0.000776588
*RES
1 *1937:DO[15] *211:9 38.0446 
2 *211:9 *211:11 186.518 
3 *211:11 *211:17 8.125 
4 *211:17 *235:DIODE 10.6571 
5 *211:17 *1920:A 9.3 
*END

*D_NET *212 0.00671412
*CONN
*I *1921:A I *D sky130_fd_sc_hd__buf_2
*I *1937:DO[16] O *D CF_SRAM_1024x32
*CAP
1 *1921:A 0.00078723
2 *1937:DO[16] 0.00167222
3 *212:9 0.00245945
4 *1921:A *213:13 0.000564118
5 *1837:A *1921:A 0
6 *1872:A *1921:A 9.99177e-05
7 *1937:ScanInDR *212:9 0.000188313
8 *1937:DI[16] *212:9 0.000281594
9 *139:12 *1921:A 0.0002252
10 *176:12 *1921:A 0.00043609
*RES
1 *1937:DO[16] *212:9 34.0357 
2 *212:9 *1921:A 32.4964 
*END

*D_NET *213 0.0061416
*CONN
*I *1922:A I *D sky130_fd_sc_hd__clkbuf_4
*I *1937:DO[17] O *D CF_SRAM_1024x32
*CAP
1 *1922:A 9.50516e-05
2 *1937:DO[17] 0.00209439
3 *213:13 0.00218944
4 *213:13 *214:11 0
5 *1921:A *213:13 0.000564118
6 *1937:BEN[18] *1922:A 0.000120604
7 *1937:WLBI *213:13 0.00080759
8 *1937:DI[17] *213:13 9.25426e-05
9 *176:12 *213:13 0.000177867
*RES
1 *1937:DO[17] *213:13 48.125 
2 *213:13 *1922:A 15.9786 
*END

*D_NET *214 0.00544389
*CONN
*I *1923:A I *D sky130_fd_sc_hd__clkbuf_4
*I *1937:DO[18] O *D CF_SRAM_1024x32
*CAP
1 *1923:A 0
2 *1937:DO[18] 0.00248767
3 *214:11 0.00248767
4 *214:11 *215:13 0.000149966
5 *1937:DI[18] *214:11 0
6 *140:12 *214:11 0.000290397
7 *176:12 *214:11 2.81946e-05
8 *213:13 *214:11 0
*RES
1 *1937:DO[18] *214:11 47 
2 *214:11 *1923:A 13.8 
*END

*D_NET *215 0.00508906
*CONN
*I *1924:A I *D sky130_fd_sc_hd__buf_2
*I *1937:DO[19] O *D CF_SRAM_1024x32
*CAP
1 *1924:A 0
2 *1937:DO[19] 0.00223235
3 *215:13 0.00223235
4 data_o[19] *215:13 5.8024e-05
5 *1937:DI[19] *215:13 0
6 *177:12 *215:13 0.000416361
7 *214:11 *215:13 0.000149966
*RES
1 *1937:DO[19] *215:13 45.6964 
2 *215:13 *1924:A 13.8 
*END

*D_NET *216 0.0177776
*CONN
*I *1925:A I *D sky130_fd_sc_hd__clkbuf_4
*I *1937:DO[1] O *D CF_SRAM_1024x32
*CAP
1 *1925:A 0.00106454
2 *1937:DO[1] 0.00165773
3 *216:33 0.00364286
4 *216:17 0.00423605
5 *216:17 *1937:AD[8] 0.000767468
6 *1937:BEN[2] *216:17 0.000621864
7 *1937:DI[3] *216:17 0.000289963
8 *1937:DI[1] *216:17 0
9 *116:15 *216:33 0
10 *119:27 *216:33 0
11 *134:10 *216:33 0
12 *144:10 *216:33 0.00239971
13 *152:40 *216:17 0.00157559
14 *161:12 *216:33 7.25167e-05
15 *174:10 *216:17 0.000266562
16 *202:18 *216:33 0.00118276
*RES
1 *1937:DO[1] *216:17 48.3903 
2 *216:17 *216:33 45.1327 
3 *216:33 *1925:A 24.2107 
*END

*D_NET *217 0.00534765
*CONN
*I *1926:A I *D sky130_fd_sc_hd__buf_2
*I *1937:DO[20] O *D CF_SRAM_1024x32
*CAP
1 *1926:A 0
2 *1937:DO[20] 0.00260975
3 *217:15 0.00260975
4 *180:12 *217:15 0.000128161
*RES
1 *1937:DO[20] *217:15 47.4464 
2 *217:15 *1926:A 9.3 
*END

*D_NET *218 0.0113486
*CONN
*I *1937:AD[8] I *D CF_SRAM_1024x32
*I *1904:X O *D sky130_fd_sc_hd__buf_2
*CAP
1 *1937:AD[8] 0.00112647
2 *1904:X 0.00185102
3 *218:8 0.00297749
4 *218:8 *228:11 0.000386121
5 *1904:A *218:8 4.82865e-05
6 *1937:AD[7] *1937:AD[8] 0.000116818
7 *1937:AD[9] *1937:AD[8] 0.00123334
8 *152:40 *1937:AD[8] 3.53786e-05
9 *174:10 *1937:AD[8] 0.00202806
10 *203:20 *1937:AD[8] 0.000352222
11 *207:14 *1937:AD[8] 0.000425958
12 *216:17 *1937:AD[8] 0.000767468
*RES
1 *1904:X *218:8 33.6393 
2 *218:8 *1937:AD[8] 42.7634 
*END

*D_NET *219 0.00484148
*CONN
*I *1927:A I *D sky130_fd_sc_hd__buf_2
*I *1937:DO[21] O *D CF_SRAM_1024x32
*CAP
1 *1927:A 0
2 *1937:DO[21] 0.0020301
3 *219:22 0.00201611
4 *219:6 1.39909e-05
5 *1937:BEN[21] *219:22 0.000781272
6 *1937:DI[21] *219:6 0
7 *1937:DI[21] *219:22 0
*RES
1 *1937:DO[21] *219:6 0.399802 
2 *1937:DO[21] *219:22 45.4643 
3 *219:22 *1927:A 9.3 
*END

*D_NET *220 0.00501563
*CONN
*I *1928:A I *D sky130_fd_sc_hd__buf_2
*I *1937:DO[22] O *D CF_SRAM_1024x32
*CAP
1 *1928:A 0
2 *1937:DO[22] 0.00137651
3 *220:17 0.00137651
4 data_o[22] *220:17 4.63699e-05
5 *1937:DI[22] *220:17 0.00221623
*RES
1 *1937:DO[22] *220:17 42.9107 
2 *220:17 *1928:A 9.3 
*END

*D_NET *221 0.00459789
*CONN
*I *1929:A I *D sky130_fd_sc_hd__clkbuf_4
*I *1937:DO[23] O *D CF_SRAM_1024x32
*CAP
1 *1929:A 0.00142016
2 *1937:DO[23] 0.00142016
3 *1937:DI[23] *1929:A 0.00175757
*RES
1 *1937:DO[23] *1929:A 40.9786 
*END

*D_NET *222 0.00589518
*CONN
*I *1930:A I *D sky130_fd_sc_hd__buf_2
*I *1937:DO[24] O *D CF_SRAM_1024x32
*CAP
1 *1930:A 0
2 *1937:DO[24] 0.00198687
3 *222:17 0.00198687
4 *1849:A *222:17 3.69047e-06
5 *1937:DI[24] *222:17 0.00189814
6 *150:12 *222:17 1.96172e-05
*RES
1 *1937:DO[24] *222:17 43.25 
2 *222:17 *1930:A 9.3 
*END

*D_NET *223 0.00544075
*CONN
*I *1931:A I *D sky130_fd_sc_hd__buf_2
*I *1937:DO[25] O *D CF_SRAM_1024x32
*CAP
1 *1931:A 0
2 *1937:DO[25] 0.00206248
3 *223:15 0.00206248
4 *1937:BEN[24] *223:15 0.000334463
5 *1937:DI[25] *223:15 0.00067278
6 *186:12 *223:15 0.000308558
*RES
1 *1937:DO[25] *223:15 44.9643 
2 *223:15 *1931:A 9.3 
*END

*D_NET *224 0.0050418
*CONN
*I *1932:A I *D sky130_fd_sc_hd__buf_2
*I *1937:DO[26] O *D CF_SRAM_1024x32
*CAP
1 *1932:A 0
2 *1937:DO[26] 0.0025209
3 *224:15 0.0025209
4 *1937:BEN[25] *224:15 0
*RES
1 *1937:DO[26] *224:15 47.7143 
2 *224:15 *1932:A 9.3 
*END

*D_NET *225 0.00657912
*CONN
*I *1933:A I *D sky130_fd_sc_hd__buf_2
*I *1937:DO[27] O *D CF_SRAM_1024x32
*CAP
1 *1933:A 0
2 *1937:DO[27] 0.00121547
3 *225:15 0.00121547
4 *1854:A *225:15 6.05161e-06
5 *1937:DI[27] *225:15 0.00133509
6 *151:12 *225:15 0.000119597
7 *153:12 *225:15 0.000711795
8 *155:8 *225:15 0.00180679
9 *187:12 *225:15 2.93215e-05
10 *189:12 *225:15 0.000139523
*RES
1 *1937:DO[27] *225:15 45.6786 
2 *225:15 *1933:A 13.8 
*END

*D_NET *226 0.00593886
*CONN
*I *1934:A I *D sky130_fd_sc_hd__clkbuf_4
*I *1937:DO[28] O *D CF_SRAM_1024x32
*CAP
1 *1934:A 0.000141018
2 *1937:DO[28] 0.00178766
3 *226:11 0.00192868
4 *226:11 *227:11 0.000367382
5 *1937:DI[28] *226:11 0.00162192
6 *189:12 *226:11 0
7 *190:12 *226:11 9.21958e-05
*RES
1 *1937:DO[28] *226:11 46.0893 
2 *226:11 *1934:A 15.9786 
*END

*D_NET *227 0.00683254
*CONN
*I *1935:A I *D sky130_fd_sc_hd__clkbuf_4
*I *1937:DO[29] O *D CF_SRAM_1024x32
*CAP
1 *1935:A 7.82704e-05
2 *1937:DO[29] 0.00168307
3 *227:11 0.00176134
4 *1937:BEN[27] *1935:A 0.000180079
5 *1937:DI[29] *227:11 0.00164923
6 *190:12 *227:11 0.00111317
7 *226:11 *227:11 0.000367382
*RES
1 *1937:DO[29] *227:11 47.8929 
2 *227:11 *1935:A 15.5679 
*END

*D_NET *228 0.0147563
*CONN
*I *1936:A I *D sky130_fd_sc_hd__buf_2
*I *1937:DO[2] O *D CF_SRAM_1024x32
*CAP
1 *1936:A 0.00141478
2 *1937:DO[2] 0.00196035
3 *228:23 0.00216253
4 *228:11 0.00270809
5 *1937:BEN[1] *228:11 0
6 *1937:BEN[3] *228:23 0.000104002
7 *1937:DI[3] *228:23 0.00116879
8 *1937:DI[5] *228:23 0.000421074
9 *1937:DI[2] *228:11 0.000271612
10 *134:20 *228:23 0.000197977
11 *144:10 *228:11 0.000849734
12 *152:22 *228:23 0
13 *156:16 *228:23 0.00166314
14 *166:16 *228:11 0.000973246
15 *197:14 *228:11 0.000333986
16 *197:14 *228:23 3.45371e-05
17 *203:20 *228:23 0.000106304
18 *218:8 *228:11 0.000386121
*RES
1 *1937:DO[2] *228:11 49.7054 
2 *228:11 *228:23 39.5357 
3 *228:23 *1936:A 28.7286 
*END
