*SPEF "ieee 1481-1999"
*DESIGN "sram_wrapper_m"
*DATE "11:11:11 Fri 11 11, 1111"
*VENDOR "OpenRCX"
*PROGRAM "Parallel Extraction"
*VERSION "1.0"
*DESIGN_FLOW "NAME_SCOPE LOCAL" "PIN_CAP NONE"
*DIVIDER /
*DELIMITER :
*BUS_DELIMITER []
*T_UNIT 1 NS
*C_UNIT 1 PF
*R_UNIT 1 OHM
*L_UNIT 1 HENRY

*NAME_MAP
*1 addr_i[0]
*2 addr_i[1]
*3 addr_i[2]
*4 addr_i[3]
*5 addr_i[4]
*6 addr_i[5]
*7 addr_i[6]
*8 addr_i[7]
*9 addr_i[8]
*10 addr_i[9]
*11 ben_i[0]
*12 ben_i[10]
*13 ben_i[11]
*14 ben_i[12]
*15 ben_i[13]
*16 ben_i[14]
*17 ben_i[15]
*18 ben_i[16]
*19 ben_i[17]
*20 ben_i[18]
*21 ben_i[19]
*22 ben_i[1]
*23 ben_i[20]
*24 ben_i[21]
*25 ben_i[22]
*26 ben_i[23]
*27 ben_i[24]
*28 ben_i[25]
*29 ben_i[26]
*30 ben_i[27]
*31 ben_i[28]
*32 ben_i[29]
*33 ben_i[2]
*34 ben_i[30]
*35 ben_i[31]
*36 ben_i[3]
*37 ben_i[4]
*38 ben_i[5]
*39 ben_i[6]
*40 ben_i[7]
*41 ben_i[8]
*42 ben_i[9]
*43 clk_i
*44 data_i[0]
*45 data_i[10]
*46 data_i[11]
*47 data_i[12]
*48 data_i[13]
*49 data_i[14]
*50 data_i[15]
*51 data_i[16]
*52 data_i[17]
*53 data_i[18]
*54 data_i[19]
*55 data_i[1]
*56 data_i[20]
*57 data_i[21]
*58 data_i[22]
*59 data_i[23]
*60 data_i[24]
*61 data_i[25]
*62 data_i[26]
*63 data_i[27]
*64 data_i[28]
*65 data_i[29]
*66 data_i[2]
*67 data_i[30]
*68 data_i[31]
*69 data_i[3]
*70 data_i[4]
*71 data_i[5]
*72 data_i[6]
*73 data_i[7]
*74 data_i[8]
*75 data_i[9]
*76 data_o[0]
*77 data_o[10]
*78 data_o[11]
*79 data_o[12]
*80 data_o[13]
*81 data_o[14]
*82 data_o[15]
*83 data_o[16]
*84 data_o[17]
*85 data_o[18]
*86 data_o[19]
*87 data_o[1]
*88 data_o[20]
*89 data_o[21]
*90 data_o[22]
*91 data_o[23]
*92 data_o[24]
*93 data_o[25]
*94 data_o[26]
*95 data_o[27]
*96 data_o[28]
*97 data_o[29]
*98 data_o[2]
*99 data_o[30]
*100 data_o[31]
*101 data_o[3]
*102 data_o[4]
*103 data_o[5]
*104 data_o[6]
*105 data_o[7]
*106 data_o[8]
*107 data_o[9]
*108 en_i
*109 read_en_i
*112 net1
*113 net10
*114 net100
*115 net101
*116 net102
*117 net103
*118 net104
*119 net105
*120 net106
*121 net107
*122 net108
*123 net109
*124 net11
*125 net110
*126 net111
*127 net112
*128 net113
*129 net114
*130 net115
*131 net116
*132 net117
*133 net12
*134 net13
*135 net14
*136 net15
*137 net16
*138 net17
*139 net18
*140 net19
*141 net2
*142 net20
*143 net21
*144 net22
*145 net23
*146 net24
*147 net25
*148 net26
*149 net27
*150 net28
*151 net29
*152 net3
*153 net30
*154 net31
*155 net32
*156 net33
*157 net34
*158 net35
*159 net36
*160 net37
*161 net38
*162 net39
*163 net4
*164 net40
*165 net41
*166 net42
*167 net43
*168 net44
*169 net45
*170 net46
*171 net47
*172 net48
*173 net49
*174 net5
*175 net50
*176 net51
*177 net52
*178 net53
*179 net54
*180 net55
*181 net56
*182 net57
*183 net58
*184 net59
*185 net6
*186 net60
*187 net61
*188 net62
*189 net63
*190 net64
*191 net65
*192 net66
*193 net67
*194 net68
*195 net69
*196 net7
*197 net70
*198 net71
*199 net72
*200 net73
*201 net74
*202 net75
*203 net76
*204 net77
*205 net78
*206 net79
*207 net8
*208 net80
*209 net81
*210 net82
*211 net83
*212 net84
*213 net85
*214 net86
*215 net87
*216 net88
*217 net89
*218 net9
*219 net90
*220 net91
*221 net92
*222 net93
*223 net94
*224 net95
*225 net96
*226 net97
*227 net98
*228 net99
*229 ANTENNA_1
*230 ANTENNA_2
*231 ANTENNA_3
*232 ANTENNA_4
*233 ANTENNA_5
*234 ANTENNA_6
*235 ANTENNA_7
*236 ANTENNA_8
*237 FILLER_0_0_680
*238 FILLER_0_0_692
*239 FILLER_0_0_704
*240 FILLER_0_0_706
*241 FILLER_0_0_718
*242 FILLER_0_0_730
*243 FILLER_0_100_680
*244 FILLER_0_100_692
*245 FILLER_0_100_704
*246 FILLER_0_100_706
*247 FILLER_0_100_718
*248 FILLER_0_100_726
*249 FILLER_0_101_680
*250 FILLER_0_101_692
*251 FILLER_0_101_704
*252 FILLER_0_101_716
*253 FILLER_0_101_728
*254 FILLER_0_102_680
*255 FILLER_0_102_692
*256 FILLER_0_102_704
*257 FILLER_0_102_706
*258 FILLER_0_102_718
*259 FILLER_0_102_726
*260 FILLER_0_103_680
*261 FILLER_0_103_692
*262 FILLER_0_103_704
*263 FILLER_0_103_716
*264 FILLER_0_103_728
*265 FILLER_0_104_680
*266 FILLER_0_104_692
*267 FILLER_0_104_704
*268 FILLER_0_104_706
*269 FILLER_0_104_718
*270 FILLER_0_104_726
*271 FILLER_0_105_680
*272 FILLER_0_105_692
*273 FILLER_0_105_704
*274 FILLER_0_105_716
*275 FILLER_0_105_724
*276 FILLER_0_106_680
*277 FILLER_0_106_692
*278 FILLER_0_106_704
*279 FILLER_0_106_706
*280 FILLER_0_106_718
*281 FILLER_0_106_726
*282 FILLER_0_107_680
*283 FILLER_0_107_692
*284 FILLER_0_107_704
*285 FILLER_0_107_716
*286 FILLER_0_107_728
*287 FILLER_0_108_680
*288 FILLER_0_108_692
*289 FILLER_0_108_704
*290 FILLER_0_108_706
*291 FILLER_0_108_718
*292 FILLER_0_108_726
*293 FILLER_0_109_680
*294 FILLER_0_109_692
*295 FILLER_0_109_704
*296 FILLER_0_109_716
*297 FILLER_0_109_728
*298 FILLER_0_10_680
*299 FILLER_0_10_692
*300 FILLER_0_10_704
*301 FILLER_0_10_706
*302 FILLER_0_10_718
*303 FILLER_0_10_730
*304 FILLER_0_110_680
*305 FILLER_0_110_692
*306 FILLER_0_110_704
*307 FILLER_0_110_706
*308 FILLER_0_110_718
*309 FILLER_0_110_726
*310 FILLER_0_111_680
*311 FILLER_0_111_692
*312 FILLER_0_111_704
*313 FILLER_0_111_716
*314 FILLER_0_111_728
*315 FILLER_0_112_680
*316 FILLER_0_112_692
*317 FILLER_0_112_704
*318 FILLER_0_112_706
*319 FILLER_0_112_718
*320 FILLER_0_112_726
*321 FILLER_0_113_680
*322 FILLER_0_113_692
*323 FILLER_0_113_704
*324 FILLER_0_113_716
*325 FILLER_0_113_728
*326 FILLER_0_114_680
*327 FILLER_0_114_692
*328 FILLER_0_114_704
*329 FILLER_0_114_706
*330 FILLER_0_114_718
*331 FILLER_0_114_726
*332 FILLER_0_115_680
*333 FILLER_0_115_692
*334 FILLER_0_115_704
*335 FILLER_0_115_716
*336 FILLER_0_115_728
*337 FILLER_0_116_680
*338 FILLER_0_116_692
*339 FILLER_0_116_704
*340 FILLER_0_116_706
*341 FILLER_0_116_718
*342 FILLER_0_116_726
*343 FILLER_0_117_680
*344 FILLER_0_117_692
*345 FILLER_0_117_704
*346 FILLER_0_117_716
*347 FILLER_0_117_728
*348 FILLER_0_118_680
*349 FILLER_0_118_692
*350 FILLER_0_118_704
*351 FILLER_0_118_706
*352 FILLER_0_118_718
*353 FILLER_0_118_726
*354 FILLER_0_119_680
*355 FILLER_0_119_692
*356 FILLER_0_119_704
*357 FILLER_0_119_716
*358 FILLER_0_119_728
*359 FILLER_0_11_680
*360 FILLER_0_11_692
*361 FILLER_0_11_704
*362 FILLER_0_11_716
*363 FILLER_0_11_728
*364 FILLER_0_11_732
*365 FILLER_0_120_680
*366 FILLER_0_120_692
*367 FILLER_0_120_704
*368 FILLER_0_120_706
*369 FILLER_0_120_718
*370 FILLER_0_120_726
*371 FILLER_0_121_680
*372 FILLER_0_121_692
*373 FILLER_0_121_704
*374 FILLER_0_121_716
*375 FILLER_0_121_728
*376 FILLER_0_122_680
*377 FILLER_0_122_692
*378 FILLER_0_122_704
*379 FILLER_0_122_706
*380 FILLER_0_122_718
*381 FILLER_0_122_726
*382 FILLER_0_123_680
*383 FILLER_0_123_692
*384 FILLER_0_123_704
*385 FILLER_0_123_716
*386 FILLER_0_123_724
*387 FILLER_0_124_680
*388 FILLER_0_124_692
*389 FILLER_0_124_704
*390 FILLER_0_124_706
*391 FILLER_0_124_718
*392 FILLER_0_124_726
*393 FILLER_0_125_680
*394 FILLER_0_125_692
*395 FILLER_0_125_704
*396 FILLER_0_125_716
*397 FILLER_0_125_728
*398 FILLER_0_126_680
*399 FILLER_0_126_692
*400 FILLER_0_126_704
*401 FILLER_0_126_706
*402 FILLER_0_126_718
*403 FILLER_0_126_726
*404 FILLER_0_127_680
*405 FILLER_0_127_692
*406 FILLER_0_127_704
*407 FILLER_0_127_716
*408 FILLER_0_127_728
*409 FILLER_0_128_680
*410 FILLER_0_128_692
*411 FILLER_0_128_704
*412 FILLER_0_128_706
*413 FILLER_0_128_718
*414 FILLER_0_128_726
*415 FILLER_0_129_680
*416 FILLER_0_129_692
*417 FILLER_0_129_704
*418 FILLER_0_129_716
*419 FILLER_0_129_728
*420 FILLER_0_12_680
*421 FILLER_0_12_692
*422 FILLER_0_12_704
*423 FILLER_0_12_706
*424 FILLER_0_12_718
*425 FILLER_0_12_730
*426 FILLER_0_130_680
*427 FILLER_0_130_692
*428 FILLER_0_130_704
*429 FILLER_0_130_706
*430 FILLER_0_130_718
*431 FILLER_0_130_730
*432 FILLER_0_131_680
*433 FILLER_0_131_692
*434 FILLER_0_131_704
*435 FILLER_0_131_716
*436 FILLER_0_131_728
*437 FILLER_0_131_732
*438 FILLER_0_132_680
*439 FILLER_0_132_692
*440 FILLER_0_132_704
*441 FILLER_0_132_706
*442 FILLER_0_132_718
*443 FILLER_0_132_730
*444 FILLER_0_133_680
*445 FILLER_0_133_692
*446 FILLER_0_133_704
*447 FILLER_0_133_716
*448 FILLER_0_133_728
*449 FILLER_0_133_732
*450 FILLER_0_134_680
*451 FILLER_0_134_692
*452 FILLER_0_134_704
*453 FILLER_0_134_706
*454 FILLER_0_134_718
*455 FILLER_0_134_730
*456 FILLER_0_135_680
*457 FILLER_0_135_692
*458 FILLER_0_135_704
*459 FILLER_0_135_716
*460 FILLER_0_135_728
*461 FILLER_0_135_732
*462 FILLER_0_136_680
*463 FILLER_0_136_692
*464 FILLER_0_136_704
*465 FILLER_0_136_706
*466 FILLER_0_136_718
*467 FILLER_0_136_730
*468 FILLER_0_137_680
*469 FILLER_0_137_692
*470 FILLER_0_137_704
*471 FILLER_0_137_716
*472 FILLER_0_137_728
*473 FILLER_0_137_732
*474 FILLER_0_138_680
*475 FILLER_0_138_692
*476 FILLER_0_138_704
*477 FILLER_0_138_706
*478 FILLER_0_138_718
*479 FILLER_0_138_730
*480 FILLER_0_139_680
*481 FILLER_0_139_692
*482 FILLER_0_139_704
*483 FILLER_0_139_716
*484 FILLER_0_139_728
*485 FILLER_0_139_732
*486 FILLER_0_13_680
*487 FILLER_0_13_692
*488 FILLER_0_13_704
*489 FILLER_0_13_716
*490 FILLER_0_13_728
*491 FILLER_0_13_732
*492 FILLER_0_140_680
*493 FILLER_0_140_692
*494 FILLER_0_140_704
*495 FILLER_0_140_706
*496 FILLER_0_140_718
*497 FILLER_0_140_730
*498 FILLER_0_141_680
*499 FILLER_0_141_692
*500 FILLER_0_141_704
*501 FILLER_0_141_716
*502 FILLER_0_141_728
*503 FILLER_0_141_732
*504 FILLER_0_142_680
*505 FILLER_0_142_692
*506 FILLER_0_142_704
*507 FILLER_0_142_706
*508 FILLER_0_142_718
*509 FILLER_0_142_730
*510 FILLER_0_143_680
*511 FILLER_0_143_692
*512 FILLER_0_143_704
*513 FILLER_0_143_716
*514 FILLER_0_143_728
*515 FILLER_0_143_732
*516 FILLER_0_144_680
*517 FILLER_0_144_692
*518 FILLER_0_144_704
*519 FILLER_0_144_706
*520 FILLER_0_144_718
*521 FILLER_0_144_730
*522 FILLER_0_145_680
*523 FILLER_0_145_692
*524 FILLER_0_145_704
*525 FILLER_0_145_716
*526 FILLER_0_145_728
*527 FILLER_0_145_732
*528 FILLER_0_146_109
*529 FILLER_0_146_113
*530 FILLER_0_146_125
*531 FILLER_0_146_137
*532 FILLER_0_146_141
*533 FILLER_0_146_15
*534 FILLER_0_146_153
*535 FILLER_0_146_165
*536 FILLER_0_146_169
*537 FILLER_0_146_181
*538 FILLER_0_146_193
*539 FILLER_0_146_197
*540 FILLER_0_146_209
*541 FILLER_0_146_221
*542 FILLER_0_146_225
*543 FILLER_0_146_237
*544 FILLER_0_146_249
*545 FILLER_0_146_253
*546 FILLER_0_146_265
*547 FILLER_0_146_27
*548 FILLER_0_146_277
*549 FILLER_0_146_281
*550 FILLER_0_146_29
*551 FILLER_0_146_293
*552 FILLER_0_146_3
*553 FILLER_0_146_305
*554 FILLER_0_146_309
*555 FILLER_0_146_321
*556 FILLER_0_146_333
*557 FILLER_0_146_337
*558 FILLER_0_146_349
*559 FILLER_0_146_361
*560 FILLER_0_146_365
*561 FILLER_0_146_377
*562 FILLER_0_146_389
*563 FILLER_0_146_393
*564 FILLER_0_146_405
*565 FILLER_0_146_41
*566 FILLER_0_146_417
*567 FILLER_0_146_421
*568 FILLER_0_146_433
*569 FILLER_0_146_445
*570 FILLER_0_146_449
*571 FILLER_0_146_461
*572 FILLER_0_146_473
*573 FILLER_0_146_477
*574 FILLER_0_146_489
*575 FILLER_0_146_501
*576 FILLER_0_146_505
*577 FILLER_0_146_517
*578 FILLER_0_146_529
*579 FILLER_0_146_53
*580 FILLER_0_146_533
*581 FILLER_0_146_545
*582 FILLER_0_146_557
*583 FILLER_0_146_561
*584 FILLER_0_146_57
*585 FILLER_0_146_573
*586 FILLER_0_146_585
*587 FILLER_0_146_589
*588 FILLER_0_146_601
*589 FILLER_0_146_613
*590 FILLER_0_146_617
*591 FILLER_0_146_629
*592 FILLER_0_146_641
*593 FILLER_0_146_645
*594 FILLER_0_146_657
*595 FILLER_0_146_669
*596 FILLER_0_146_673
*597 FILLER_0_146_685
*598 FILLER_0_146_69
*599 FILLER_0_146_697
*600 FILLER_0_146_701
*601 FILLER_0_146_713
*602 FILLER_0_146_725
*603 FILLER_0_146_729
*604 FILLER_0_146_81
*605 FILLER_0_146_85
*606 FILLER_0_146_97
*607 FILLER_0_147_105
*608 FILLER_0_147_111
*609 FILLER_0_147_113
*610 FILLER_0_147_125
*611 FILLER_0_147_137
*612 FILLER_0_147_149
*613 FILLER_0_147_15
*614 FILLER_0_147_161
*615 FILLER_0_147_167
*616 FILLER_0_147_169
*617 FILLER_0_147_181
*618 FILLER_0_147_193
*619 FILLER_0_147_205
*620 FILLER_0_147_217
*621 FILLER_0_147_223
*622 FILLER_0_147_225
*623 FILLER_0_147_237
*624 FILLER_0_147_249
*625 FILLER_0_147_261
*626 FILLER_0_147_27
*627 FILLER_0_147_273
*628 FILLER_0_147_279
*629 FILLER_0_147_281
*630 FILLER_0_147_293
*631 FILLER_0_147_3
*632 FILLER_0_147_305
*633 FILLER_0_147_317
*634 FILLER_0_147_329
*635 FILLER_0_147_335
*636 FILLER_0_147_337
*637 FILLER_0_147_349
*638 FILLER_0_147_361
*639 FILLER_0_147_373
*640 FILLER_0_147_385
*641 FILLER_0_147_39
*642 FILLER_0_147_391
*643 FILLER_0_147_393
*644 FILLER_0_147_405
*645 FILLER_0_147_417
*646 FILLER_0_147_429
*647 FILLER_0_147_441
*648 FILLER_0_147_447
*649 FILLER_0_147_449
*650 FILLER_0_147_461
*651 FILLER_0_147_473
*652 FILLER_0_147_485
*653 FILLER_0_147_497
*654 FILLER_0_147_503
*655 FILLER_0_147_505
*656 FILLER_0_147_51
*657 FILLER_0_147_517
*658 FILLER_0_147_529
*659 FILLER_0_147_541
*660 FILLER_0_147_55
*661 FILLER_0_147_553
*662 FILLER_0_147_559
*663 FILLER_0_147_561
*664 FILLER_0_147_57
*665 FILLER_0_147_573
*666 FILLER_0_147_585
*667 FILLER_0_147_597
*668 FILLER_0_147_609
*669 FILLER_0_147_615
*670 FILLER_0_147_617
*671 FILLER_0_147_629
*672 FILLER_0_147_641
*673 FILLER_0_147_653
*674 FILLER_0_147_665
*675 FILLER_0_147_671
*676 FILLER_0_147_673
*677 FILLER_0_147_685
*678 FILLER_0_147_69
*679 FILLER_0_147_697
*680 FILLER_0_147_709
*681 FILLER_0_147_721
*682 FILLER_0_147_727
*683 FILLER_0_147_729
*684 FILLER_0_147_81
*685 FILLER_0_147_93
*686 FILLER_0_148_109
*687 FILLER_0_148_121
*688 FILLER_0_148_133
*689 FILLER_0_148_139
*690 FILLER_0_148_141
*691 FILLER_0_148_15
*692 FILLER_0_148_153
*693 FILLER_0_148_165
*694 FILLER_0_148_177
*695 FILLER_0_148_189
*696 FILLER_0_148_195
*697 FILLER_0_148_197
*698 FILLER_0_148_209
*699 FILLER_0_148_221
*700 FILLER_0_148_233
*701 FILLER_0_148_245
*702 FILLER_0_148_251
*703 FILLER_0_148_253
*704 FILLER_0_148_265
*705 FILLER_0_148_27
*706 FILLER_0_148_277
*707 FILLER_0_148_289
*708 FILLER_0_148_29
*709 FILLER_0_148_3
*710 FILLER_0_148_301
*711 FILLER_0_148_307
*712 FILLER_0_148_309
*713 FILLER_0_148_321
*714 FILLER_0_148_333
*715 FILLER_0_148_345
*716 FILLER_0_148_357
*717 FILLER_0_148_363
*718 FILLER_0_148_365
*719 FILLER_0_148_377
*720 FILLER_0_148_389
*721 FILLER_0_148_401
*722 FILLER_0_148_41
*723 FILLER_0_148_413
*724 FILLER_0_148_419
*725 FILLER_0_148_421
*726 FILLER_0_148_433
*727 FILLER_0_148_445
*728 FILLER_0_148_457
*729 FILLER_0_148_469
*730 FILLER_0_148_475
*731 FILLER_0_148_477
*732 FILLER_0_148_489
*733 FILLER_0_148_501
*734 FILLER_0_148_513
*735 FILLER_0_148_525
*736 FILLER_0_148_53
*737 FILLER_0_148_531
*738 FILLER_0_148_533
*739 FILLER_0_148_545
*740 FILLER_0_148_557
*741 FILLER_0_148_569
*742 FILLER_0_148_581
*743 FILLER_0_148_587
*744 FILLER_0_148_589
*745 FILLER_0_148_601
*746 FILLER_0_148_613
*747 FILLER_0_148_625
*748 FILLER_0_148_637
*749 FILLER_0_148_643
*750 FILLER_0_148_645
*751 FILLER_0_148_65
*752 FILLER_0_148_657
*753 FILLER_0_148_669
*754 FILLER_0_148_681
*755 FILLER_0_148_693
*756 FILLER_0_148_699
*757 FILLER_0_148_701
*758 FILLER_0_148_713
*759 FILLER_0_148_725
*760 FILLER_0_148_77
*761 FILLER_0_148_83
*762 FILLER_0_148_85
*763 FILLER_0_148_97
*764 FILLER_0_149_109
*765 FILLER_0_149_113
*766 FILLER_0_149_125
*767 FILLER_0_149_137
*768 FILLER_0_149_141
*769 FILLER_0_149_15
*770 FILLER_0_149_153
*771 FILLER_0_149_165
*772 FILLER_0_149_169
*773 FILLER_0_149_181
*774 FILLER_0_149_193
*775 FILLER_0_149_197
*776 FILLER_0_149_209
*777 FILLER_0_149_221
*778 FILLER_0_149_225
*779 FILLER_0_149_237
*780 FILLER_0_149_249
*781 FILLER_0_149_253
*782 FILLER_0_149_265
*783 FILLER_0_149_27
*784 FILLER_0_149_277
*785 FILLER_0_149_281
*786 FILLER_0_149_29
*787 FILLER_0_149_293
*788 FILLER_0_149_3
*789 FILLER_0_149_305
*790 FILLER_0_149_309
*791 FILLER_0_149_321
*792 FILLER_0_149_333
*793 FILLER_0_149_337
*794 FILLER_0_149_349
*795 FILLER_0_149_361
*796 FILLER_0_149_365
*797 FILLER_0_149_377
*798 FILLER_0_149_389
*799 FILLER_0_149_393
*800 FILLER_0_149_405
*801 FILLER_0_149_41
*802 FILLER_0_149_417
*803 FILLER_0_149_421
*804 FILLER_0_149_433
*805 FILLER_0_149_445
*806 FILLER_0_149_449
*807 FILLER_0_149_461
*808 FILLER_0_149_473
*809 FILLER_0_149_477
*810 FILLER_0_149_489
*811 FILLER_0_149_501
*812 FILLER_0_149_505
*813 FILLER_0_149_517
*814 FILLER_0_149_529
*815 FILLER_0_149_53
*816 FILLER_0_149_533
*817 FILLER_0_149_545
*818 FILLER_0_149_557
*819 FILLER_0_149_561
*820 FILLER_0_149_57
*821 FILLER_0_149_573
*822 FILLER_0_149_585
*823 FILLER_0_149_589
*824 FILLER_0_149_601
*825 FILLER_0_149_613
*826 FILLER_0_149_617
*827 FILLER_0_149_629
*828 FILLER_0_149_641
*829 FILLER_0_149_645
*830 FILLER_0_149_657
*831 FILLER_0_149_669
*832 FILLER_0_149_673
*833 FILLER_0_149_685
*834 FILLER_0_149_69
*835 FILLER_0_149_697
*836 FILLER_0_149_701
*837 FILLER_0_149_713
*838 FILLER_0_149_725
*839 FILLER_0_149_729
*840 FILLER_0_149_81
*841 FILLER_0_149_85
*842 FILLER_0_149_97
*843 FILLER_0_14_680
*844 FILLER_0_14_692
*845 FILLER_0_14_704
*846 FILLER_0_14_706
*847 FILLER_0_14_718
*848 FILLER_0_14_730
*849 FILLER_0_15_680
*850 FILLER_0_15_692
*851 FILLER_0_15_704
*852 FILLER_0_15_716
*853 FILLER_0_15_728
*854 FILLER_0_15_732
*855 FILLER_0_16_680
*856 FILLER_0_16_692
*857 FILLER_0_16_704
*858 FILLER_0_16_706
*859 FILLER_0_16_718
*860 FILLER_0_16_730
*861 FILLER_0_17_680
*862 FILLER_0_17_692
*863 FILLER_0_17_704
*864 FILLER_0_17_716
*865 FILLER_0_17_728
*866 FILLER_0_17_732
*867 FILLER_0_18_680
*868 FILLER_0_18_692
*869 FILLER_0_18_704
*870 FILLER_0_18_706
*871 FILLER_0_18_718
*872 FILLER_0_18_730
*873 FILLER_0_19_680
*874 FILLER_0_19_692
*875 FILLER_0_19_704
*876 FILLER_0_19_716
*877 FILLER_0_19_728
*878 FILLER_0_19_732
*879 FILLER_0_1_680
*880 FILLER_0_1_692
*881 FILLER_0_1_704
*882 FILLER_0_1_716
*883 FILLER_0_1_728
*884 FILLER_0_1_732
*885 FILLER_0_20_680
*886 FILLER_0_20_692
*887 FILLER_0_20_704
*888 FILLER_0_20_706
*889 FILLER_0_20_718
*890 FILLER_0_20_730
*891 FILLER_0_21_680
*892 FILLER_0_21_692
*893 FILLER_0_21_704
*894 FILLER_0_21_716
*895 FILLER_0_21_728
*896 FILLER_0_21_732
*897 FILLER_0_22_680
*898 FILLER_0_22_692
*899 FILLER_0_22_704
*900 FILLER_0_22_706
*901 FILLER_0_22_718
*902 FILLER_0_22_726
*903 FILLER_0_23_680
*904 FILLER_0_23_692
*905 FILLER_0_23_704
*906 FILLER_0_23_716
*907 FILLER_0_23_724
*908 FILLER_0_24_680
*909 FILLER_0_24_692
*910 FILLER_0_24_704
*911 FILLER_0_24_706
*912 FILLER_0_24_718
*913 FILLER_0_24_726
*914 FILLER_0_25_680
*915 FILLER_0_25_692
*916 FILLER_0_25_704
*917 FILLER_0_25_716
*918 FILLER_0_25_728
*919 FILLER_0_26_680
*920 FILLER_0_26_692
*921 FILLER_0_26_704
*922 FILLER_0_26_706
*923 FILLER_0_26_718
*924 FILLER_0_26_726
*925 FILLER_0_27_680
*926 FILLER_0_27_692
*927 FILLER_0_27_704
*928 FILLER_0_27_716
*929 FILLER_0_27_724
*930 FILLER_0_27_727
*931 FILLER_0_28_680
*932 FILLER_0_28_692
*933 FILLER_0_28_704
*934 FILLER_0_28_706
*935 FILLER_0_28_718
*936 FILLER_0_28_726
*937 FILLER_0_29_680
*938 FILLER_0_29_692
*939 FILLER_0_29_704
*940 FILLER_0_29_716
*941 FILLER_0_29_728
*942 FILLER_0_2_680
*943 FILLER_0_2_692
*944 FILLER_0_2_704
*945 FILLER_0_2_706
*946 FILLER_0_2_718
*947 FILLER_0_2_730
*948 FILLER_0_30_680
*949 FILLER_0_30_692
*950 FILLER_0_30_704
*951 FILLER_0_30_706
*952 FILLER_0_30_718
*953 FILLER_0_30_726
*954 FILLER_0_31_680
*955 FILLER_0_31_692
*956 FILLER_0_31_704
*957 FILLER_0_31_716
*958 FILLER_0_31_724
*959 FILLER_0_32_680
*960 FILLER_0_32_692
*961 FILLER_0_32_704
*962 FILLER_0_32_706
*963 FILLER_0_32_718
*964 FILLER_0_32_726
*965 FILLER_0_33_680
*966 FILLER_0_33_692
*967 FILLER_0_33_704
*968 FILLER_0_33_716
*969 FILLER_0_33_728
*970 FILLER_0_34_680
*971 FILLER_0_34_692
*972 FILLER_0_34_704
*973 FILLER_0_34_706
*974 FILLER_0_34_718
*975 FILLER_0_34_726
*976 FILLER_0_35_680
*977 FILLER_0_35_692
*978 FILLER_0_35_704
*979 FILLER_0_35_716
*980 FILLER_0_35_728
*981 FILLER_0_36_680
*982 FILLER_0_36_692
*983 FILLER_0_36_704
*984 FILLER_0_36_706
*985 FILLER_0_36_718
*986 FILLER_0_36_726
*987 FILLER_0_37_680
*988 FILLER_0_37_692
*989 FILLER_0_37_704
*990 FILLER_0_37_716
*991 FILLER_0_37_728
*992 FILLER_0_38_680
*993 FILLER_0_38_692
*994 FILLER_0_38_704
*995 FILLER_0_38_706
*996 FILLER_0_38_718
*997 FILLER_0_38_726
*998 FILLER_0_39_680
*999 FILLER_0_39_692
*1000 FILLER_0_39_704
*1001 FILLER_0_39_716
*1002 FILLER_0_39_724
*1003 FILLER_0_3_680
*1004 FILLER_0_3_692
*1005 FILLER_0_3_704
*1006 FILLER_0_3_716
*1007 FILLER_0_3_728
*1008 FILLER_0_3_732
*1009 FILLER_0_40_680
*1010 FILLER_0_40_692
*1011 FILLER_0_40_704
*1012 FILLER_0_40_706
*1013 FILLER_0_40_718
*1014 FILLER_0_40_726
*1015 FILLER_0_41_680
*1016 FILLER_0_41_692
*1017 FILLER_0_41_704
*1018 FILLER_0_41_716
*1019 FILLER_0_41_728
*1020 FILLER_0_42_680
*1021 FILLER_0_42_692
*1022 FILLER_0_42_704
*1023 FILLER_0_42_706
*1024 FILLER_0_42_718
*1025 FILLER_0_42_726
*1026 FILLER_0_43_680
*1027 FILLER_0_43_692
*1028 FILLER_0_43_704
*1029 FILLER_0_43_716
*1030 FILLER_0_43_728
*1031 FILLER_0_44_680
*1032 FILLER_0_44_692
*1033 FILLER_0_44_704
*1034 FILLER_0_44_706
*1035 FILLER_0_44_718
*1036 FILLER_0_44_726
*1037 FILLER_0_45_680
*1038 FILLER_0_45_692
*1039 FILLER_0_45_704
*1040 FILLER_0_45_716
*1041 FILLER_0_45_728
*1042 FILLER_0_46_680
*1043 FILLER_0_46_692
*1044 FILLER_0_46_704
*1045 FILLER_0_46_706
*1046 FILLER_0_46_718
*1047 FILLER_0_46_726
*1048 FILLER_0_47_680
*1049 FILLER_0_47_692
*1050 FILLER_0_47_704
*1051 FILLER_0_47_716
*1052 FILLER_0_47_724
*1053 FILLER_0_48_680
*1054 FILLER_0_48_692
*1055 FILLER_0_48_704
*1056 FILLER_0_48_706
*1057 FILLER_0_48_718
*1058 FILLER_0_48_726
*1059 FILLER_0_49_680
*1060 FILLER_0_49_692
*1061 FILLER_0_49_704
*1062 FILLER_0_49_716
*1063 FILLER_0_49_728
*1064 FILLER_0_4_680
*1065 FILLER_0_4_692
*1066 FILLER_0_4_704
*1067 FILLER_0_4_706
*1068 FILLER_0_4_718
*1069 FILLER_0_4_730
*1070 FILLER_0_50_680
*1071 FILLER_0_50_692
*1072 FILLER_0_50_704
*1073 FILLER_0_50_706
*1074 FILLER_0_50_718
*1075 FILLER_0_50_726
*1076 FILLER_0_51_680
*1077 FILLER_0_51_692
*1078 FILLER_0_51_704
*1079 FILLER_0_51_716
*1080 FILLER_0_51_728
*1081 FILLER_0_52_680
*1082 FILLER_0_52_692
*1083 FILLER_0_52_704
*1084 FILLER_0_52_706
*1085 FILLER_0_52_718
*1086 FILLER_0_52_726
*1087 FILLER_0_53_680
*1088 FILLER_0_53_692
*1089 FILLER_0_53_704
*1090 FILLER_0_53_716
*1091 FILLER_0_53_728
*1092 FILLER_0_54_680
*1093 FILLER_0_54_692
*1094 FILLER_0_54_704
*1095 FILLER_0_54_706
*1096 FILLER_0_54_718
*1097 FILLER_0_54_726
*1098 FILLER_0_55_680
*1099 FILLER_0_55_692
*1100 FILLER_0_55_704
*1101 FILLER_0_55_716
*1102 FILLER_0_55_728
*1103 FILLER_0_56_680
*1104 FILLER_0_56_692
*1105 FILLER_0_56_704
*1106 FILLER_0_56_706
*1107 FILLER_0_56_718
*1108 FILLER_0_56_726
*1109 FILLER_0_57_680
*1110 FILLER_0_57_692
*1111 FILLER_0_57_704
*1112 FILLER_0_57_716
*1113 FILLER_0_57_728
*1114 FILLER_0_58_680
*1115 FILLER_0_58_692
*1116 FILLER_0_58_704
*1117 FILLER_0_58_706
*1118 FILLER_0_58_718
*1119 FILLER_0_58_726
*1120 FILLER_0_59_680
*1121 FILLER_0_59_692
*1122 FILLER_0_59_704
*1123 FILLER_0_59_716
*1124 FILLER_0_59_724
*1125 FILLER_0_5_680
*1126 FILLER_0_5_692
*1127 FILLER_0_5_704
*1128 FILLER_0_5_716
*1129 FILLER_0_5_728
*1130 FILLER_0_5_732
*1131 FILLER_0_60_680
*1132 FILLER_0_60_692
*1133 FILLER_0_60_704
*1134 FILLER_0_60_706
*1135 FILLER_0_60_718
*1136 FILLER_0_60_726
*1137 FILLER_0_61_680
*1138 FILLER_0_61_692
*1139 FILLER_0_61_704
*1140 FILLER_0_61_716
*1141 FILLER_0_61_728
*1142 FILLER_0_62_680
*1143 FILLER_0_62_692
*1144 FILLER_0_62_704
*1145 FILLER_0_62_706
*1146 FILLER_0_62_718
*1147 FILLER_0_62_726
*1148 FILLER_0_63_683
*1149 FILLER_0_63_695
*1150 FILLER_0_63_707
*1151 FILLER_0_63_719
*1152 FILLER_0_63_727
*1153 FILLER_0_64_680
*1154 FILLER_0_64_692
*1155 FILLER_0_64_704
*1156 FILLER_0_64_706
*1157 FILLER_0_64_718
*1158 FILLER_0_64_726
*1159 FILLER_0_65_683
*1160 FILLER_0_65_695
*1161 FILLER_0_65_707
*1162 FILLER_0_65_719
*1163 FILLER_0_65_727
*1164 FILLER_0_66_680
*1165 FILLER_0_66_692
*1166 FILLER_0_66_704
*1167 FILLER_0_66_706
*1168 FILLER_0_66_718
*1169 FILLER_0_66_724
*1170 FILLER_0_66_727
*1171 FILLER_0_67_680
*1172 FILLER_0_67_692
*1173 FILLER_0_67_704
*1174 FILLER_0_67_716
*1175 FILLER_0_67_724
*1176 FILLER_0_68_680
*1177 FILLER_0_68_692
*1178 FILLER_0_68_704
*1179 FILLER_0_68_706
*1180 FILLER_0_68_718
*1181 FILLER_0_68_726
*1182 FILLER_0_69_680
*1183 FILLER_0_69_692
*1184 FILLER_0_69_704
*1185 FILLER_0_69_716
*1186 FILLER_0_69_724
*1187 FILLER_0_69_727
*1188 FILLER_0_6_680
*1189 FILLER_0_6_692
*1190 FILLER_0_6_704
*1191 FILLER_0_6_706
*1192 FILLER_0_6_718
*1193 FILLER_0_6_730
*1194 FILLER_0_70_680
*1195 FILLER_0_70_692
*1196 FILLER_0_70_704
*1197 FILLER_0_70_706
*1198 FILLER_0_70_718
*1199 FILLER_0_70_726
*1200 FILLER_0_71_686
*1201 FILLER_0_71_698
*1202 FILLER_0_71_710
*1203 FILLER_0_71_722
*1204 FILLER_0_71_726
*1205 FILLER_0_72_680
*1206 FILLER_0_72_692
*1207 FILLER_0_72_704
*1208 FILLER_0_72_706
*1209 FILLER_0_72_718
*1210 FILLER_0_72_722
*1211 FILLER_0_72_725
*1212 FILLER_0_73_680
*1213 FILLER_0_73_692
*1214 FILLER_0_73_704
*1215 FILLER_0_73_716
*1216 FILLER_0_73_724
*1217 FILLER_0_74_680
*1218 FILLER_0_74_692
*1219 FILLER_0_74_704
*1220 FILLER_0_74_706
*1221 FILLER_0_74_718
*1222 FILLER_0_74_726
*1223 FILLER_0_75_683
*1224 FILLER_0_75_695
*1225 FILLER_0_75_707
*1226 FILLER_0_75_719
*1227 FILLER_0_75_725
*1228 FILLER_0_76_683
*1229 FILLER_0_76_695
*1230 FILLER_0_76_703
*1231 FILLER_0_76_706
*1232 FILLER_0_76_718
*1233 FILLER_0_76_726
*1234 FILLER_0_77_683
*1235 FILLER_0_77_695
*1236 FILLER_0_77_707
*1237 FILLER_0_77_719
*1238 FILLER_0_78_680
*1239 FILLER_0_78_692
*1240 FILLER_0_78_704
*1241 FILLER_0_78_706
*1242 FILLER_0_78_718
*1243 FILLER_0_78_724
*1244 FILLER_0_78_727
*1245 FILLER_0_79_680
*1246 FILLER_0_79_692
*1247 FILLER_0_79_704
*1248 FILLER_0_79_716
*1249 FILLER_0_79_724
*1250 FILLER_0_7_680
*1251 FILLER_0_7_692
*1252 FILLER_0_7_704
*1253 FILLER_0_7_716
*1254 FILLER_0_7_728
*1255 FILLER_0_7_732
*1256 FILLER_0_80_680
*1257 FILLER_0_80_692
*1258 FILLER_0_80_704
*1259 FILLER_0_80_706
*1260 FILLER_0_80_718
*1261 FILLER_0_80_726
*1262 FILLER_0_81_686
*1263 FILLER_0_81_698
*1264 FILLER_0_81_710
*1265 FILLER_0_81_722
*1266 FILLER_0_81_727
*1267 FILLER_0_82_680
*1268 FILLER_0_82_692
*1269 FILLER_0_82_704
*1270 FILLER_0_82_706
*1271 FILLER_0_82_718
*1272 FILLER_0_82_726
*1273 FILLER_0_83_680
*1274 FILLER_0_83_692
*1275 FILLER_0_83_704
*1276 FILLER_0_83_716
*1277 FILLER_0_83_728
*1278 FILLER_0_84_680
*1279 FILLER_0_84_692
*1280 FILLER_0_84_704
*1281 FILLER_0_84_706
*1282 FILLER_0_84_718
*1283 FILLER_0_84_726
*1284 FILLER_0_85_680
*1285 FILLER_0_85_692
*1286 FILLER_0_85_704
*1287 FILLER_0_85_716
*1288 FILLER_0_85_728
*1289 FILLER_0_86_680
*1290 FILLER_0_86_692
*1291 FILLER_0_86_704
*1292 FILLER_0_86_706
*1293 FILLER_0_86_718
*1294 FILLER_0_86_726
*1295 FILLER_0_87_680
*1296 FILLER_0_87_692
*1297 FILLER_0_87_704
*1298 FILLER_0_87_716
*1299 FILLER_0_87_724
*1300 FILLER_0_88_680
*1301 FILLER_0_88_692
*1302 FILLER_0_88_704
*1303 FILLER_0_88_706
*1304 FILLER_0_88_718
*1305 FILLER_0_88_726
*1306 FILLER_0_89_680
*1307 FILLER_0_89_692
*1308 FILLER_0_89_704
*1309 FILLER_0_89_716
*1310 FILLER_0_89_728
*1311 FILLER_0_8_680
*1312 FILLER_0_8_692
*1313 FILLER_0_8_704
*1314 FILLER_0_8_706
*1315 FILLER_0_8_718
*1316 FILLER_0_8_730
*1317 FILLER_0_90_680
*1318 FILLER_0_90_692
*1319 FILLER_0_90_704
*1320 FILLER_0_90_706
*1321 FILLER_0_90_718
*1322 FILLER_0_90_726
*1323 FILLER_0_91_680
*1324 FILLER_0_91_692
*1325 FILLER_0_91_704
*1326 FILLER_0_91_716
*1327 FILLER_0_91_728
*1328 FILLER_0_92_680
*1329 FILLER_0_92_692
*1330 FILLER_0_92_704
*1331 FILLER_0_92_706
*1332 FILLER_0_92_718
*1333 FILLER_0_92_726
*1334 FILLER_0_93_680
*1335 FILLER_0_93_692
*1336 FILLER_0_93_704
*1337 FILLER_0_93_716
*1338 FILLER_0_93_728
*1339 FILLER_0_94_680
*1340 FILLER_0_94_692
*1341 FILLER_0_94_704
*1342 FILLER_0_94_706
*1343 FILLER_0_94_718
*1344 FILLER_0_94_726
*1345 FILLER_0_95_680
*1346 FILLER_0_95_692
*1347 FILLER_0_95_704
*1348 FILLER_0_95_716
*1349 FILLER_0_95_728
*1350 FILLER_0_96_680
*1351 FILLER_0_96_692
*1352 FILLER_0_96_704
*1353 FILLER_0_96_706
*1354 FILLER_0_96_718
*1355 FILLER_0_96_726
*1356 FILLER_0_97_680
*1357 FILLER_0_97_692
*1358 FILLER_0_97_704
*1359 FILLER_0_97_716
*1360 FILLER_0_97_728
*1361 FILLER_0_98_680
*1362 FILLER_0_98_692
*1363 FILLER_0_98_704
*1364 FILLER_0_98_706
*1365 FILLER_0_98_718
*1366 FILLER_0_98_726
*1367 FILLER_0_99_680
*1368 FILLER_0_99_692
*1369 FILLER_0_99_704
*1370 FILLER_0_99_716
*1371 FILLER_0_99_728
*1372 FILLER_0_9_680
*1373 FILLER_0_9_692
*1374 FILLER_0_9_704
*1375 FILLER_0_9_716
*1376 FILLER_0_9_728
*1377 FILLER_0_9_732
*1378 PHY_0
*1379 PHY_1
*1380 PHY_10
*1381 PHY_100
*1382 PHY_101
*1383 PHY_102
*1384 PHY_103
*1385 PHY_104
*1386 PHY_105
*1387 PHY_106
*1388 PHY_107
*1389 PHY_108
*1390 PHY_109
*1391 PHY_11
*1392 PHY_110
*1393 PHY_111
*1394 PHY_112
*1395 PHY_113
*1396 PHY_114
*1397 PHY_115
*1398 PHY_116
*1399 PHY_117
*1400 PHY_118
*1401 PHY_119
*1402 PHY_12
*1403 PHY_120
*1404 PHY_121
*1405 PHY_122
*1406 PHY_123
*1407 PHY_124
*1408 PHY_125
*1409 PHY_126
*1410 PHY_127
*1411 PHY_128
*1412 PHY_129
*1413 PHY_13
*1414 PHY_130
*1415 PHY_131
*1416 PHY_132
*1417 PHY_133
*1418 PHY_134
*1419 PHY_135
*1420 PHY_136
*1421 PHY_137
*1422 PHY_138
*1423 PHY_139
*1424 PHY_14
*1425 PHY_140
*1426 PHY_141
*1427 PHY_142
*1428 PHY_143
*1429 PHY_144
*1430 PHY_145
*1431 PHY_146
*1432 PHY_147
*1433 PHY_148
*1434 PHY_149
*1435 PHY_15
*1436 PHY_150
*1437 PHY_151
*1438 PHY_152
*1439 PHY_153
*1440 PHY_154
*1441 PHY_155
*1442 PHY_156
*1443 PHY_157
*1444 PHY_158
*1445 PHY_159
*1446 PHY_16
*1447 PHY_160
*1448 PHY_161
*1449 PHY_162
*1450 PHY_163
*1451 PHY_164
*1452 PHY_165
*1453 PHY_166
*1454 PHY_167
*1455 PHY_168
*1456 PHY_169
*1457 PHY_17
*1458 PHY_170
*1459 PHY_171
*1460 PHY_172
*1461 PHY_173
*1462 PHY_174
*1463 PHY_175
*1464 PHY_176
*1465 PHY_177
*1466 PHY_178
*1467 PHY_179
*1468 PHY_18
*1469 PHY_180
*1470 PHY_181
*1471 PHY_182
*1472 PHY_183
*1473 PHY_184
*1474 PHY_185
*1475 PHY_186
*1476 PHY_187
*1477 PHY_188
*1478 PHY_189
*1479 PHY_19
*1480 PHY_190
*1481 PHY_191
*1482 PHY_192
*1483 PHY_193
*1484 PHY_194
*1485 PHY_195
*1486 PHY_196
*1487 PHY_197
*1488 PHY_198
*1489 PHY_199
*1490 PHY_2
*1491 PHY_20
*1492 PHY_200
*1493 PHY_201
*1494 PHY_202
*1495 PHY_203
*1496 PHY_204
*1497 PHY_205
*1498 PHY_206
*1499 PHY_207
*1500 PHY_208
*1501 PHY_209
*1502 PHY_21
*1503 PHY_210
*1504 PHY_211
*1505 PHY_212
*1506 PHY_213
*1507 PHY_214
*1508 PHY_215
*1509 PHY_216
*1510 PHY_217
*1511 PHY_218
*1512 PHY_219
*1513 PHY_22
*1514 PHY_220
*1515 PHY_221
*1516 PHY_222
*1517 PHY_223
*1518 PHY_224
*1519 PHY_225
*1520 PHY_226
*1521 PHY_227
*1522 PHY_228
*1523 PHY_229
*1524 PHY_23
*1525 PHY_230
*1526 PHY_231
*1527 PHY_232
*1528 PHY_233
*1529 PHY_234
*1530 PHY_235
*1531 PHY_236
*1532 PHY_237
*1533 PHY_238
*1534 PHY_239
*1535 PHY_24
*1536 PHY_240
*1537 PHY_241
*1538 PHY_242
*1539 PHY_243
*1540 PHY_244
*1541 PHY_245
*1542 PHY_246
*1543 PHY_247
*1544 PHY_248
*1545 PHY_249
*1546 PHY_25
*1547 PHY_250
*1548 PHY_251
*1549 PHY_252
*1550 PHY_253
*1551 PHY_254
*1552 PHY_255
*1553 PHY_256
*1554 PHY_257
*1555 PHY_258
*1556 PHY_259
*1557 PHY_26
*1558 PHY_260
*1559 PHY_261
*1560 PHY_262
*1561 PHY_263
*1562 PHY_264
*1563 PHY_265
*1564 PHY_266
*1565 PHY_267
*1566 PHY_268
*1567 PHY_269
*1568 PHY_27
*1569 PHY_270
*1570 PHY_271
*1571 PHY_272
*1572 PHY_273
*1573 PHY_274
*1574 PHY_275
*1575 PHY_276
*1576 PHY_277
*1577 PHY_278
*1578 PHY_279
*1579 PHY_28
*1580 PHY_280
*1581 PHY_281
*1582 PHY_282
*1583 PHY_283
*1584 PHY_284
*1585 PHY_285
*1586 PHY_286
*1587 PHY_287
*1588 PHY_288
*1589 PHY_289
*1590 PHY_29
*1591 PHY_290
*1592 PHY_291
*1593 PHY_292
*1594 PHY_293
*1595 PHY_294
*1596 PHY_295
*1597 PHY_296
*1598 PHY_297
*1599 PHY_298
*1600 PHY_299
*1601 PHY_3
*1602 PHY_30
*1603 PHY_31
*1604 PHY_32
*1605 PHY_33
*1606 PHY_34
*1607 PHY_35
*1608 PHY_36
*1609 PHY_37
*1610 PHY_38
*1611 PHY_39
*1612 PHY_4
*1613 PHY_40
*1614 PHY_41
*1615 PHY_42
*1616 PHY_43
*1617 PHY_44
*1618 PHY_45
*1619 PHY_46
*1620 PHY_47
*1621 PHY_48
*1622 PHY_49
*1623 PHY_5
*1624 PHY_50
*1625 PHY_51
*1626 PHY_52
*1627 PHY_53
*1628 PHY_54
*1629 PHY_55
*1630 PHY_56
*1631 PHY_57
*1632 PHY_58
*1633 PHY_59
*1634 PHY_6
*1635 PHY_60
*1636 PHY_61
*1637 PHY_62
*1638 PHY_63
*1639 PHY_64
*1640 PHY_65
*1641 PHY_66
*1642 PHY_67
*1643 PHY_68
*1644 PHY_69
*1645 PHY_7
*1646 PHY_70
*1647 PHY_71
*1648 PHY_72
*1649 PHY_73
*1650 PHY_74
*1651 PHY_75
*1652 PHY_76
*1653 PHY_77
*1654 PHY_78
*1655 PHY_79
*1656 PHY_8
*1657 PHY_80
*1658 PHY_81
*1659 PHY_82
*1660 PHY_83
*1661 PHY_84
*1662 PHY_85
*1663 PHY_86
*1664 PHY_87
*1665 PHY_88
*1666 PHY_89
*1667 PHY_9
*1668 PHY_90
*1669 PHY_91
*1670 PHY_92
*1671 PHY_93
*1672 PHY_94
*1673 PHY_95
*1674 PHY_96
*1675 PHY_97
*1676 PHY_98
*1677 PHY_99
*1678 TAP_300
*1679 TAP_301
*1680 TAP_302
*1681 TAP_303
*1682 TAP_304
*1683 TAP_305
*1684 TAP_306
*1685 TAP_307
*1686 TAP_308
*1687 TAP_309
*1688 TAP_310
*1689 TAP_311
*1690 TAP_312
*1691 TAP_313
*1692 TAP_314
*1693 TAP_315
*1694 TAP_316
*1695 TAP_317
*1696 TAP_318
*1697 TAP_319
*1698 TAP_320
*1699 TAP_321
*1700 TAP_322
*1701 TAP_323
*1702 TAP_324
*1703 TAP_325
*1704 TAP_326
*1705 TAP_327
*1706 TAP_328
*1707 TAP_329
*1708 TAP_330
*1709 TAP_331
*1710 TAP_332
*1711 TAP_333
*1712 TAP_334
*1713 TAP_335
*1714 TAP_336
*1715 TAP_337
*1716 TAP_338
*1717 TAP_339
*1718 TAP_340
*1719 TAP_341
*1720 TAP_342
*1721 TAP_343
*1722 TAP_344
*1723 TAP_345
*1724 TAP_346
*1725 TAP_347
*1726 TAP_348
*1727 TAP_349
*1728 TAP_350
*1729 TAP_351
*1730 TAP_352
*1731 TAP_353
*1732 TAP_354
*1733 TAP_355
*1734 TAP_356
*1735 TAP_357
*1736 TAP_358
*1737 TAP_359
*1738 TAP_360
*1739 TAP_361
*1740 TAP_362
*1741 TAP_363
*1742 TAP_364
*1743 TAP_365
*1744 TAP_366
*1745 TAP_367
*1746 TAP_368
*1747 TAP_369
*1748 TAP_370
*1749 TAP_371
*1750 TAP_372
*1751 TAP_373
*1752 TAP_374
*1753 TAP_375
*1754 TAP_376
*1755 TAP_377
*1756 TAP_378
*1757 TAP_379
*1758 TAP_380
*1759 TAP_381
*1760 TAP_382
*1761 TAP_383
*1762 TAP_384
*1763 TAP_385
*1764 TAP_386
*1765 TAP_387
*1766 TAP_388
*1767 TAP_389
*1768 TAP_390
*1769 TAP_391
*1770 TAP_392
*1771 TAP_393
*1772 TAP_394
*1773 TAP_395
*1774 TAP_396
*1775 TAP_397
*1776 TAP_398
*1777 TAP_399
*1778 TAP_400
*1779 TAP_401
*1780 TAP_402
*1781 TAP_403
*1782 TAP_404
*1783 TAP_405
*1784 TAP_406
*1785 TAP_407
*1786 TAP_408
*1787 TAP_409
*1788 TAP_410
*1789 TAP_411
*1790 TAP_412
*1791 TAP_413
*1792 TAP_414
*1793 TAP_415
*1794 TAP_416
*1795 TAP_417
*1796 TAP_418
*1797 TAP_419
*1798 TAP_420
*1799 TAP_421
*1800 TAP_422
*1801 TAP_423
*1802 TAP_424
*1803 TAP_425
*1804 TAP_426
*1805 TAP_427
*1806 TAP_428
*1807 TAP_429
*1808 TAP_430
*1809 TAP_431
*1810 TAP_432
*1811 TAP_433
*1812 TAP_434
*1813 TAP_435
*1814 TAP_436
*1815 TAP_437
*1816 TAP_438
*1817 TAP_439
*1818 TAP_440
*1819 TAP_441
*1820 TAP_442
*1821 TAP_443
*1822 TAP_444
*1823 TAP_445
*1824 TAP_446
*1825 TAP_447
*1826 TAP_448
*1827 TAP_449
*1828 TAP_450
*1829 input1
*1830 input10
*1831 input11
*1832 input12
*1833 input13
*1834 input14
*1835 input15
*1836 input16
*1837 input17
*1838 input18
*1839 input19
*1840 input2
*1841 input20
*1842 input21
*1843 input22
*1844 input23
*1845 input24
*1846 input25
*1847 input26
*1848 input27
*1849 input28
*1850 input29
*1851 input3
*1852 input30
*1853 input31
*1854 input32
*1855 input33
*1856 input34
*1857 input35
*1858 input36
*1859 input37
*1860 input38
*1861 input39
*1862 input4
*1863 input40
*1864 input41
*1865 input42
*1866 input43
*1867 input44
*1868 input45
*1869 input46
*1870 input47
*1871 input48
*1872 input49
*1873 input5
*1874 input50
*1875 input51
*1876 input52
*1877 input53
*1878 input54
*1879 input55
*1880 input56
*1881 input57
*1882 input58
*1883 input59
*1884 input6
*1885 input60
*1886 input61
*1887 input62
*1888 input63
*1889 input64
*1890 input65
*1891 input66
*1892 input67
*1893 input68
*1894 input69
*1895 input7
*1896 input70
*1897 input71
*1898 input72
*1899 input73
*1900 input74
*1901 input75
*1902 input76
*1903 input8
*1904 input9
*1905 output100
*1906 output101
*1907 output102
*1908 output103
*1909 output104
*1910 output105
*1911 output106
*1912 output107
*1913 output108
*1914 output77
*1915 output78
*1916 output79
*1917 output80
*1918 output81
*1919 output82
*1920 output83
*1921 output84
*1922 output85
*1923 output86
*1924 output87
*1925 output88
*1926 output89
*1927 output90
*1928 output91
*1929 output92
*1930 output93
*1931 output94
*1932 output95
*1933 output96
*1934 output97
*1935 output98
*1936 output99
*1937 sram
*1938 sram_109
*1939 sram_110
*1940 sram_111
*1941 sram_112
*1942 sram_113
*1943 sram_114
*1944 sram_115
*1945 sram_116
*1946 sram_117

*PORTS
addr_i[0] I
addr_i[1] I
addr_i[2] I
addr_i[3] I
addr_i[4] I
addr_i[5] I
addr_i[6] I
addr_i[7] I
addr_i[8] I
addr_i[9] I
ben_i[0] I
ben_i[10] I
ben_i[11] I
ben_i[12] I
ben_i[13] I
ben_i[14] I
ben_i[15] I
ben_i[16] I
ben_i[17] I
ben_i[18] I
ben_i[19] I
ben_i[1] I
ben_i[20] I
ben_i[21] I
ben_i[22] I
ben_i[23] I
ben_i[24] I
ben_i[25] I
ben_i[26] I
ben_i[27] I
ben_i[28] I
ben_i[29] I
ben_i[2] I
ben_i[30] I
ben_i[31] I
ben_i[3] I
ben_i[4] I
ben_i[5] I
ben_i[6] I
ben_i[7] I
ben_i[8] I
ben_i[9] I
clk_i I
data_i[0] I
data_i[10] I
data_i[11] I
data_i[12] I
data_i[13] I
data_i[14] I
data_i[15] I
data_i[16] I
data_i[17] I
data_i[18] I
data_i[19] I
data_i[1] I
data_i[20] I
data_i[21] I
data_i[22] I
data_i[23] I
data_i[24] I
data_i[25] I
data_i[26] I
data_i[27] I
data_i[28] I
data_i[29] I
data_i[2] I
data_i[30] I
data_i[31] I
data_i[3] I
data_i[4] I
data_i[5] I
data_i[6] I
data_i[7] I
data_i[8] I
data_i[9] I
data_o[0] O
data_o[10] O
data_o[11] O
data_o[12] O
data_o[13] O
data_o[14] O
data_o[15] O
data_o[16] O
data_o[17] O
data_o[18] O
data_o[19] O
data_o[1] O
data_o[20] O
data_o[21] O
data_o[22] O
data_o[23] O
data_o[24] O
data_o[25] O
data_o[26] O
data_o[27] O
data_o[28] O
data_o[29] O
data_o[2] O
data_o[30] O
data_o[31] O
data_o[3] O
data_o[4] O
data_o[5] O
data_o[6] O
data_o[7] O
data_o[8] O
data_o[9] O
en_i I
read_en_i I

*D_NET *1 0.0011221
*CONN
*P addr_i[0] I
*I *1829:A I *D sky130_fd_sc_hd__clkbuf_4
*CAP
1 addr_i[0] 0.000370181
2 *1829:A 0
3 *1:15 0.000370181
4 *1:15 *1902:A 3.91434e-05
5 *1:15 *1937:DI[10] 0.000192772
6 *1:15 *11:13 3.91434e-05
7 *1:15 *205:7 2.97444e-05
8 *1:15 *210:11 8.0934e-05
*RES
1 addr_i[0] *1:15 30.3787 
2 *1:15 *1829:A 23 
*END

*D_NET *2 0.00132595
*CONN
*P addr_i[1] I
*I *1840:A I *D sky130_fd_sc_hd__clkbuf_4
*CAP
1 addr_i[1] 0.00049485
2 *1840:A 0.00049485
3 *1840:A data_o[0] 0.000119557
4 *1840:A *22:15 3.91434e-05
5 *1840:A *55:13 0
6 *1840:A *204:19 2.78373e-05
7 *1840:A *206:17 0.000149711
*RES
1 addr_i[1] *1840:A 49.1831 
*END

*D_NET *3 0.00136339
*CONN
*P addr_i[2] I
*I *1851:A I *D sky130_fd_sc_hd__clkbuf_4
*CAP
1 addr_i[2] 0.000389714
2 *1851:A 0
3 *3:17 0.000389714
4 *3:17 data_o[1] 7.84143e-05
5 *3:17 *1937:DI[8] 0.00014852
6 *3:17 *33:13 7.5079e-05
7 *3:17 *121:14 0.000101925
8 *3:17 *211:11 0.000180019
*RES
1 addr_i[2] *3:17 30.0179 
2 *3:17 *1851:A 23 
*END

*D_NET *4 0.0014103
*CONN
*P addr_i[3] I
*I *1862:A I *D sky130_fd_sc_hd__clkbuf_4
*CAP
1 addr_i[3] 0.000504513
2 *1862:A 0.000504513
3 *1862:A data_o[2] 0.000101198
4 *1862:A *36:15 7.43681e-05
5 *1862:A *191:12 7.07396e-05
6 *1862:A *206:19 0.00015497
*RES
1 addr_i[3] *1862:A 49.1831 
*END

*D_NET *5 0.00124942
*CONN
*P addr_i[4] I
*I *1873:A I *D sky130_fd_sc_hd__buf_2
*CAP
1 addr_i[4] 0.000435222
2 *1873:A 0
3 *5:13 0.000435222
4 *5:13 data_o[3] 2.77333e-05
5 *5:13 *37:13 7.43681e-05
6 *5:13 *69:13 0
7 *5:13 *164:18 4.63132e-05
8 *5:13 *174:6 4.96207e-05
9 *5:13 *211:11 0.000180939
*RES
1 addr_i[4] *5:13 28.5472 
2 *5:13 *1873:A 23 
*END

*D_NET *6 0.00201982
*CONN
*P addr_i[5] I
*I *1884:A I *D sky130_fd_sc_hd__buf_2
*CAP
1 addr_i[5] 0.000796653
2 *1884:A 0
3 *6:13 0.000796653
4 *6:13 data_o[4] 3.5106e-05
5 *6:13 *38:15 3.10774e-05
6 *6:13 *70:15 0
7 *6:13 *71:13 0
8 *6:13 *138:20 0
9 *6:13 *204:19 0.000182379
10 *6:13 *206:19 0.000177953
*RES
1 addr_i[5] *6:13 28.2813 
2 *6:13 *1884:A 23 
*END

*D_NET *7 0.00136896
*CONN
*P addr_i[6] I
*I *1895:A I *D sky130_fd_sc_hd__buf_2
*CAP
1 addr_i[6] 0.000429343
2 *1895:A 0
3 *7:13 0.000429343
4 *7:13 data_o[5] 3.10774e-05
5 *7:13 *39:15 7.43769e-05
6 *7:13 *138:20 0
7 *7:13 *185:10 0.000183572
8 *7:13 *196:8 4.03039e-05
9 *7:13 *211:11 0.000180939
*RES
1 addr_i[6] *7:13 28.5472 
2 *7:13 *1895:A 23 
*END

*D_NET *8 0.00121105
*CONN
*P addr_i[7] I
*I *1903:A I *D sky130_fd_sc_hd__buf_2
*CAP
1 addr_i[7] 0.000473763
2 *1903:A 0
3 *8:15 0.000473763
4 *8:15 data_o[6] 3.10686e-05
5 *8:15 *40:15 3.10686e-05
6 *8:15 *196:10 5.05059e-05
7 *8:15 *207:8 9.77405e-05
8 *8:15 *210:11 5.31385e-05
*RES
1 addr_i[7] *8:15 30.2545 
2 *8:15 *1903:A 23 
*END

*D_NET *9 0.00133876
*CONN
*P addr_i[8] I
*I *1904:A I *D sky130_fd_sc_hd__buf_2
*CAP
1 addr_i[8] 0.000409598
2 *1904:A 0
3 *9:13 0.000409598
4 *9:13 data_o[7] 7.43681e-05
5 *9:13 *41:15 3.10686e-05
6 *9:13 *74:13 0
7 *9:13 *185:10 0.000183572
8 *9:13 *211:11 0.000180939
9 *9:13 *218:6 4.96207e-05
*RES
1 addr_i[8] *9:13 28.5472 
2 *9:13 *1904:A 23 
*END

*D_NET *10 0.00130877
*CONN
*P addr_i[9] I
*I *1830:A I *D sky130_fd_sc_hd__buf_2
*CAP
1 addr_i[9] 0.000380118
2 *1830:A 0
3 *10:13 0.000380118
4 *10:13 data_o[8] 7.84143e-05
5 *10:13 *42:13 7.5079e-05
6 *10:13 *113:8 3.05299e-05
7 *10:13 *185:10 0.000183572
8 *10:13 *211:11 0.000180939
*RES
1 addr_i[9] *10:13 28.5472 
2 *10:13 *1830:A 23 
*END

*D_NET *11 0.00120143
*CONN
*P ben_i[0] I
*I *1831:A I *D sky130_fd_sc_hd__buf_2
*CAP
1 ben_i[0] 0.000428261
2 *1831:A 0
3 *11:13 0.000428261
4 *11:13 *44:13 3.58169e-05
5 *11:13 *124:8 5.68958e-05
6 *11:13 *205:11 0
7 *11:13 *210:11 0.000213049
8 *1:15 *11:13 3.91434e-05
*RES
1 ben_i[0] *11:13 30.4616 
2 *11:13 *1831:A 23 
*END

*D_NET *12 0.0013588
*CONN
*P ben_i[10] I
*I *1832:A I *D sky130_fd_sc_hd__buf_2
*CAP
1 ben_i[10] 0.000365333
2 *1832:A 0
3 *12:13 0.000365333
4 *12:13 data_o[9] 7.84143e-05
5 *12:13 *45:13 7.84143e-05
6 *12:13 *133:8 5.25022e-05
7 *12:13 *185:10 0.00018293
8 *12:13 *204:7 5.56279e-05
9 *12:13 *211:11 0.000180241
*RES
1 ben_i[10] *12:13 28.5472 
2 *12:13 *1832:A 23 
*END

*D_NET *13 0.00129443
*CONN
*P ben_i[11] I
*I *1833:A I *D sky130_fd_sc_hd__clkbuf_4
*CAP
1 ben_i[11] 0.000375245
2 *1833:A 0
3 *13:15 0.000375245
4 *13:15 data_o[10] 3.51148e-05
5 *13:15 *1937:AD[6] 0.000241471
6 *13:15 *46:13 3.17795e-05
7 *13:15 *134:6 2.07484e-05
8 *13:15 *196:10 0.000106097
9 *13:15 *205:15 0
10 *13:15 *210:11 0.00010873
*RES
1 ben_i[11] *13:15 31.083 
2 *13:15 *1833:A 23 
*END

*D_NET *14 0.00120561
*CONN
*P ben_i[12] I
*I *1834:A I *D sky130_fd_sc_hd__clkbuf_4
*CAP
1 ben_i[12] 0.000434313
2 *1834:A 0.000434313
3 *1834:A data_o[11] 0.000119574
4 *1834:A *1869:A 0.000146758
5 *1834:A *137:10 7.06486e-05
6 *1834:A *211:11 0
*RES
1 ben_i[12] *1834:A 49.1831 
*END

*D_NET *15 0.00128313
*CONN
*P ben_i[13] I
*I *1835:A I *D sky130_fd_sc_hd__clkbuf_4
*CAP
1 ben_i[13] 0.000444203
2 *1835:A 0
3 *15:15 0.000444203
4 *15:15 data_o[12] 8.64891e-05
5 *15:15 *1870:A 8.64891e-05
6 *15:15 *136:6 1.23293e-05
7 *15:15 *171:8 0
8 *15:15 *211:11 0.000209421
*RES
1 ben_i[13] *15:15 29.8729 
2 *15:15 *1835:A 23 
*END

*D_NET *16 0.00102007
*CONN
*P ben_i[14] I
*I *1836:A I *D sky130_fd_sc_hd__clkbuf_4
*CAP
1 ben_i[14] 0.000401438
2 *1836:A 0
3 *16:13 0.000401438
4 *16:13 data_o[13] 3.91434e-05
5 *16:13 *49:13 3.91434e-05
6 *16:13 *80:12 0
7 *16:13 *137:8 5.79559e-05
8 *16:13 *138:10 0
9 *16:13 *210:19 8.09487e-05
*RES
1 ben_i[14] *16:13 30.2337 
2 *16:13 *1836:A 23 
*END

*D_NET *17 0.00136409
*CONN
*P ben_i[15] I
*I *1837:A I *D sky130_fd_sc_hd__clkbuf_4
*CAP
1 ben_i[15] 0.000432358
2 *1837:A 0.000432358
3 *1837:A data_o[14] 0.000123594
4 *1837:A *50:17 0.000280208
5 *1837:A *172:12 6.41968e-06
6 *1837:A *175:20 8.91546e-05
7 *1837:A *212:15 0
*RES
1 ben_i[15] *1837:A 49.8874 
*END

*D_NET *18 0.000985203
*CONN
*P ben_i[16] I
*I *1838:A I *D sky130_fd_sc_hd__buf_2
*CAP
1 ben_i[16] 0.000387416
2 *1838:A 0
3 *18:15 0.000387416
4 *18:15 data_o[15] 7.73692e-05
5 *18:15 *51:13 7.8978e-05
6 *18:15 *139:10 5.40241e-05
*RES
1 ben_i[16] *18:15 29.0828 
2 *18:15 *1838:A 23 
*END

*D_NET *19 0.000934971
*CONN
*P ben_i[17] I
*I *1839:A I *D sky130_fd_sc_hd__clkbuf_2
*CAP
1 ben_i[17] 0.000403322
2 *1839:A 0
3 *19:13 0.000403322
4 *19:13 data_o[16] 5.29942e-05
5 *19:13 *52:13 6.12087e-05
6 *19:13 *140:6 1.41244e-05
*RES
1 ben_i[17] *19:13 29.9467 
2 *19:13 *1839:A 23 
*END

*D_NET *20 0.000962098
*CONN
*P ben_i[18] I
*I *1841:A I *D sky130_fd_sc_hd__clkbuf_2
*CAP
1 ben_i[18] 0.000308991
2 *1841:A 0
3 *20:13 0.000308991
4 *20:13 data_o[17] 8.06957e-05
5 *20:13 *53:13 7.73692e-05
6 *20:13 *142:8 0.000186051
*RES
1 ben_i[18] *20:13 28.1092 
2 *20:13 *1841:A 23 
*END

*D_NET *21 0.000974765
*CONN
*P ben_i[19] I
*I *1842:A I *D sky130_fd_sc_hd__clkbuf_2
*CAP
1 ben_i[19] 0.000407074
2 *1842:A 0
3 *21:15 0.000407074
4 *21:15 data_o[18] 5.29942e-05
5 *21:15 *1937:BEN[19] 5.79559e-05
6 *21:15 *54:13 4.96677e-05
*RES
1 ben_i[19] *21:15 30.0917 
2 *21:15 *1842:A 23 
*END

*D_NET *22 0.00117849
*CONN
*P ben_i[1] I
*I *1843:A I *D sky130_fd_sc_hd__buf_2
*CAP
1 ben_i[1] 0.00042758
2 *1843:A 0
3 *22:15 0.00042758
4 *22:15 *55:13 3.51148e-05
5 *22:15 *122:10 0
6 *22:15 *144:6 3.42479e-05
7 *22:15 *201:20 0.000106097
8 *22:15 *210:11 0.00010873
9 *1840:A *22:15 3.91434e-05
*RES
1 ben_i[1] *22:15 30.6066 
2 *22:15 *1843:A 23 
*END

*D_NET *23 0.000815709
*CONN
*P ben_i[20] I
*I *1844:A I *D sky130_fd_sc_hd__clkbuf_2
*CAP
1 ben_i[20] 0.000361649
2 *1844:A 0
3 *23:13 0.000361649
4 *23:13 data_o[19] 3.91434e-05
5 *23:13 *56:13 3.91434e-05
6 *23:13 *145:10 1.41244e-05
*RES
1 ben_i[20] *23:13 29.2809 
2 *23:13 *1844:A 23 
*END

*D_NET *24 0.00232757
*CONN
*P ben_i[21] I
*I *1845:A I *D sky130_fd_sc_hd__clkbuf_2
*CAP
1 ben_i[21] 0.000974583
2 *1845:A 0
3 *24:21 0.000974583
4 *24:21 data_o[20] 0.000127632
5 *24:21 data_o[21] 0
6 *24:21 *57:13 5.29942e-05
7 *24:21 *146:8 0.000197774
*RES
1 ben_i[21] *24:21 33.244 
2 *24:21 *1845:A 23 
*END

*D_NET *25 0.000822976
*CONN
*P ben_i[22] I
*I *1846:A I *D sky130_fd_sc_hd__clkbuf_2
*CAP
1 ben_i[22] 0.000353095
2 *1846:A 0
3 *25:15 0.000353095
4 *25:15 data_o[21] 5.29942e-05
5 *25:15 *58:13 4.96677e-05
6 *25:15 *147:8 1.41244e-05
*RES
1 ben_i[22] *25:15 29.0353 
2 *25:15 *1846:A 23 
*END

*D_NET *26 0.000946308
*CONN
*P ben_i[23] I
*I *1847:A I *D sky130_fd_sc_hd__clkbuf_2
*CAP
1 ben_i[23] 0.000391182
2 *1847:A 0
3 *26:15 0.000391182
4 *26:15 data_o[22] 5.29942e-05
5 *26:15 *59:13 5.29942e-05
6 *26:15 *148:8 5.79559e-05
*RES
1 ben_i[23] *26:15 30.0917 
2 *26:15 *1847:A 23 
*END

*D_NET *27 0.000853051
*CONN
*P ben_i[24] I
*I *1848:A I *D sky130_fd_sc_hd__clkbuf_2
*CAP
1 ben_i[24] 0.000338767
2 *1848:A 0
3 *27:13 0.000338767
4 *27:13 data_o[23] 8.06957e-05
5 *27:13 *60:13 8.06957e-05
6 *27:13 *149:8 1.41244e-05
*RES
1 ben_i[24] *27:13 28.1092 
2 *27:13 *1848:A 23 
*END

*D_NET *28 0.00100737
*CONN
*P ben_i[25] I
*I *1849:A I *D sky130_fd_sc_hd__buf_2
*CAP
1 ben_i[25] 0.000396009
2 *1849:A 0
3 *28:15 0.000396009
4 *28:15 data_o[24] 7.73692e-05
5 *28:15 *61:15 7.73692e-05
6 *28:15 *150:8 5.68958e-05
7 *28:15 *222:11 3.7122e-06
*RES
1 ben_i[25] *28:15 29.4349 
2 *28:15 *1849:A 23 
*END

*D_NET *29 0.00105526
*CONN
*P ben_i[26] I
*I *1850:A I *D sky130_fd_sc_hd__buf_2
*CAP
1 ben_i[26] 0.000433579
2 *1850:A 0
3 *29:13 0.000433579
4 *29:13 data_o[25] 8.06957e-05
5 *29:13 data_o[26] 0
6 *29:13 *62:13 5.29942e-05
7 *29:13 *149:12 0
8 *29:13 *151:8 5.44109e-05
*RES
1 ben_i[26] *29:13 28.9378 
2 *29:13 *1850:A 23 
*END

*D_NET *30 0.00219136
*CONN
*P ben_i[27] I
*I *1852:A I *D sky130_fd_sc_hd__buf_2
*CAP
1 ben_i[27] 0.000915283
2 *1852:A 0
3 *30:13 0.000915283
4 *30:13 data_o[26] 0.000125414
5 *30:13 *1937:BEN[25] 5.12254e-05
6 *30:13 *63:13 8.06957e-05
7 *30:13 *150:12 0.000103456
*RES
1 ben_i[27] *30:13 30.8826 
2 *30:13 *1852:A 23 
*END

*D_NET *31 0.000961647
*CONN
*P ben_i[28] I
*I *1853:A I *D sky130_fd_sc_hd__buf_2
*CAP
1 ben_i[28] 0.000416186
2 *1853:A 0
3 *31:15 0.000416186
4 *31:15 data_o[27] 3.91434e-05
5 *31:15 *63:13 0
6 *31:15 *64:13 5.29942e-05
7 *31:15 *95:10 0
8 *31:15 *154:8 3.71369e-05
*RES
1 ben_i[28] *31:15 29.8639 
2 *31:15 *1853:A 23 
*END

*D_NET *32 0.0011042
*CONN
*P ben_i[29] I
*I *1854:A I *D sky130_fd_sc_hd__buf_2
*CAP
1 ben_i[29] 0.000401901
2 *1854:A 0
3 *32:15 0.000401901
4 *32:15 data_o[28] 7.73692e-05
5 *32:15 *1937:DI[27] 4.96207e-05
6 *32:15 *65:13 7.73692e-05
7 *32:15 *154:12 6.54744e-05
8 *32:15 *155:6 2.43944e-05
9 *32:15 *225:11 6.17437e-06
*RES
1 ben_i[29] *32:15 29.4349 
2 *32:15 *1854:A 23 
*END

*D_NET *33 0.00128653
*CONN
*P ben_i[2] I
*I *1855:A I *D sky130_fd_sc_hd__buf_2
*CAP
1 ben_i[2] 0.000427722
2 *1855:A 0
3 *33:13 0.000427722
4 *33:13 data_o[2] 0
5 *33:13 *66:15 3.10686e-05
6 *33:13 *121:22 8.26569e-05
7 *33:13 *156:6 3.42479e-05
8 *33:13 *211:11 0.000208037
9 *3:17 *33:13 7.5079e-05
*RES
1 ben_i[2] *33:13 28.8993 
2 *33:13 *1855:A 23 
*END

*D_NET *34 0.00101629
*CONN
*P ben_i[30] I
*I *1856:A I *D sky130_fd_sc_hd__buf_2
*CAP
1 ben_i[30] 0.00036826
2 *1856:A 0
3 *34:13 0.00036826
4 *34:13 data_o[29] 4.96677e-05
5 *34:13 *65:13 0
6 *34:13 *67:15 8.06957e-05
7 *34:13 *154:12 9.2511e-05
8 *34:13 *157:6 5.68958e-05
*RES
1 ben_i[30] *34:13 28.9378 
2 *34:13 *1856:A 23 
*END

*D_NET *35 0.00102562
*CONN
*P ben_i[31] I
*I *1857:A I *D sky130_fd_sc_hd__buf_2
*CAP
1 ben_i[31] 0.00032313
2 *1857:A 0
3 *35:13 0.00032313
4 *35:13 data_o[30] 7.8978e-05
5 *35:13 data_o[31] 0
6 *35:13 *1937:BEN[28] 0.000103469
7 *35:13 *68:15 5.29942e-05
8 *35:13 *154:12 0.000107267
9 *35:13 *158:6 3.66555e-05
*RES
1 ben_i[31] *35:13 29.2899 
2 *35:13 *1857:A 23 
*END

*D_NET *36 0.00133255
*CONN
*P ben_i[3] I
*I *1858:A I *D sky130_fd_sc_hd__buf_2
*CAP
1 ben_i[3] 0.000427518
2 *1858:A 0
3 *36:15 0.000427518
4 *36:15 *69:13 7.10328e-05
5 *36:15 *121:22 7.43212e-05
6 *36:15 *164:22 0.000130212
7 *36:15 *211:11 0.00012758
8 *1862:A *36:15 7.43681e-05
*RES
1 ben_i[3] *36:15 29.0443 
2 *36:15 *1858:A 23 
*END

*D_NET *37 0.00126471
*CONN
*P ben_i[4] I
*I *1859:A I *D sky130_fd_sc_hd__buf_2
*CAP
1 ben_i[4] 0.000411852
2 *1859:A 0
3 *37:13 0.000411852
4 *37:13 *70:15 7.43681e-05
5 *37:13 *160:6 3.05299e-05
6 *37:13 *164:18 5.44807e-05
7 *37:13 *211:11 0.000207256
8 *5:13 *37:13 7.43681e-05
*RES
1 ben_i[4] *37:13 28.8993 
2 *37:13 *1859:A 23 
*END

*D_NET *38 0.00138615
*CONN
*P ben_i[5] I
*I *1860:A I *D sky130_fd_sc_hd__clkbuf_2
*CAP
1 ben_i[5] 0.000438782
2 *1860:A 0
3 *38:15 0.000438782
4 *38:15 *71:13 3.10774e-05
5 *38:15 *122:24 0.000215734
6 *38:15 *161:6 1.23293e-05
7 *38:15 *210:11 0.000218367
8 *6:13 *38:15 3.10774e-05
*RES
1 ben_i[5] *38:15 30.4823 
2 *38:15 *1860:A 23 
*END

*D_NET *39 0.00147108
*CONN
*P ben_i[6] I
*I *1861:A I *D sky130_fd_sc_hd__buf_2
*CAP
1 ben_i[6] 0.000483325
2 *1861:A 0
3 *39:15 0.000483325
4 *39:15 *72:13 7.33614e-05
5 *39:15 *162:8 4.96303e-05
6 *39:15 *185:10 0.000154847
7 *39:15 *211:11 0.000152214
8 *7:13 *39:15 7.43769e-05
*RES
1 ben_i[6] *39:15 29.0443 
2 *39:15 *1861:A 23 
*END

*D_NET *40 0.00136666
*CONN
*P ben_i[7] I
*I *1863:A I *D sky130_fd_sc_hd__buf_2
*CAP
1 ben_i[7] 0.000495429
2 *1863:A 0
3 *40:15 0.000495429
4 *40:15 data_o[6] 0
5 *40:15 *73:13 7.10328e-05
6 *40:15 *185:10 0.000130212
7 *40:15 *204:17 1.59094e-05
8 *40:15 *211:11 0.00012758
9 *8:15 *40:15 3.10686e-05
*RES
1 ben_i[7] *40:15 29.0443 
2 *40:15 *1863:A 23 
*END

*D_NET *41 0.00122136
*CONN
*P ben_i[8] I
*I *1864:A I *D sky130_fd_sc_hd__buf_2
*CAP
1 ben_i[8] 0.000480496
2 *1864:A 0
3 *41:15 0.000480496
4 *41:15 *74:13 3.10686e-05
5 *41:15 *165:8 2.97709e-05
6 *41:15 *196:10 7.83014e-05
7 *41:15 *200:8 9.22008e-06
8 *41:15 *210:11 8.0934e-05
9 *9:13 *41:15 3.10686e-05
*RES
1 ben_i[8] *41:15 30.6066 
2 *41:15 *1864:A 23 
*END

*D_NET *42 0.00145446
*CONN
*P ben_i[9] I
*I *1865:A I *D sky130_fd_sc_hd__buf_2
*CAP
1 ben_i[9] 0.000448034
2 *1865:A 0
3 *42:13 0.000448034
4 *42:13 *75:17 4.35972e-05
5 *42:13 *166:8 4.89198e-05
6 *42:13 *185:10 0.000196717
7 *42:13 *211:11 0.000194078
8 *10:13 *42:13 7.5079e-05
*RES
1 ben_i[9] *42:13 28.8993 
2 *42:13 *1865:A 23 
*END

*D_NET *43 0.0334139
*CONN
*P clk_i I
*I *1937:CLKin I *D CF_SRAM_1024x32
*CAP
1 clk_i 0.00162893
2 *1937:CLKin 0.00107397
3 *43:13 0.00725091
4 *43:11 0.00780587
5 *1937:CLKin *1937:DI[17] 0.000541678
6 *43:11 *1901:A 0.000191097
7 *43:11 *202:24 0
8 *43:13 *134:10 0.00639561
9 *43:13 *136:10 0.00255581
10 *43:13 *137:18 0.00597006
11 *43:13 *144:10 0
*RES
1 clk_i *43:11 11.7445 
2 *43:11 *43:13 174.28 
3 *43:13 *1937:CLKin 38.5521 
*END

*D_NET *44 0.00115421
*CONN
*P data_i[0] I
*I *1866:A I *D sky130_fd_sc_hd__buf_2
*CAP
1 data_i[0] 0.000401425
2 *1866:A 0
3 *44:13 0.000401425
4 *44:13 data_o[0] 7.84055e-05
5 *44:13 *167:8 5.68958e-05
6 *44:13 *211:11 0.000180241
7 *11:13 *44:13 3.58169e-05
*RES
1 data_i[0] *44:13 28.5472 
2 *44:13 *1866:A 23 
*END

*D_NET *45 0.00133655
*CONN
*P data_i[10] I
*I *1867:A I *D sky130_fd_sc_hd__buf_2
*CAP
1 data_i[10] 0.000362027
2 *1867:A 0
3 *45:13 0.000362027
4 *45:13 data_o[10] 7.5079e-05
5 *45:13 *168:8 4.81857e-05
6 *45:13 *185:10 0.000206727
7 *45:13 *211:11 0.000204095
8 *12:13 *45:13 7.84143e-05
*RES
1 data_i[10] *45:13 28.8993 
2 *45:13 *1867:A 23 
*END

*D_NET *46 0.00130866
*CONN
*P data_i[11] I
*I *1868:A I *D sky130_fd_sc_hd__buf_2
*CAP
1 data_i[11] 0.000391194
2 *1868:A 0
3 *46:13 0.000391194
4 *46:13 data_o[10] 0
5 *46:13 data_o[11] 8.07429e-05
6 *46:13 *169:8 5.68958e-05
7 *46:13 *185:10 0.000179769
8 *46:13 *211:11 0.00017708
9 *13:15 *46:13 3.17795e-05
*RES
1 data_i[11] *46:13 28.5472 
2 *46:13 *1868:A 23 
*END

*D_NET *47 0.0011856
*CONN
*P data_i[12] I
*I *1869:A I *D sky130_fd_sc_hd__clkbuf_4
*CAP
1 data_i[12] 0.000413428
2 *1869:A 0.000413428
3 *1869:A data_o[12] 0.000114191
4 *1869:A *137:10 9.77988e-05
5 *1869:A *211:11 0
6 *1834:A *1869:A 0.000146758
*RES
1 data_i[12] *1869:A 49.8874 
*END

*D_NET *48 0.00126807
*CONN
*P data_i[13] I
*I *1870:A I *D sky130_fd_sc_hd__clkbuf_4
*CAP
1 data_i[13] 0.000467561
2 *1870:A 0.000467561
3 *1870:A data_o[12] 0
4 *1870:A data_o[13] 4.96677e-05
5 *1870:A *137:10 7.38265e-05
6 *1870:A *171:8 0.000122969
7 *15:15 *1870:A 8.64891e-05
*RES
1 data_i[13] *1870:A 49.1831 
*END

*D_NET *49 0.00131024
*CONN
*P data_i[14] I
*I *1871:A I *D sky130_fd_sc_hd__clkbuf_4
*CAP
1 data_i[14] 0.00055937
2 *1871:A 0
3 *49:13 0.00055937
4 *49:13 data_o[13] 0
5 *49:13 data_o[14] 0.000123594
6 *49:13 *172:12 2.87664e-05
7 *49:13 *211:11 0
8 *16:13 *49:13 3.91434e-05
*RES
1 data_i[14] *49:13 27.0324 
2 *49:13 *1871:A 23 
*END

*D_NET *50 0.00292179
*CONN
*P data_i[15] I
*I *1872:A I *D sky130_fd_sc_hd__clkbuf_4
*CAP
1 data_i[15] 0.00125376
2 *1872:A 0
3 *50:17 0.00125376
4 *50:17 data_o[15] 3.22181e-05
5 *50:17 *172:12 0
6 *50:17 *212:15 0.000101844
7 *1837:A *50:17 0.000280208
*RES
1 data_i[15] *50:17 31.4763 
2 *50:17 *1872:A 23 
*END

*D_NET *51 0.000912158
*CONN
*P data_i[16] I
*I *1874:A I *D sky130_fd_sc_hd__clkbuf_2
*CAP
1 data_i[16] 0.000376242
2 *1874:A 0
3 *51:13 0.000376242
4 *51:13 data_o[16] 8.06957e-05
5 *18:15 *51:13 7.8978e-05
*RES
1 data_i[16] *51:13 28.8135 
2 *51:13 *1874:A 23 
*END

*D_NET *52 0.000949232
*CONN
*P data_i[17] I
*I *1875:A I *D sky130_fd_sc_hd__clkbuf_2
*CAP
1 data_i[17] 0.000378364
2 *1875:A 0
3 *52:13 0.000378364
4 *52:13 data_o[16] 0
5 *52:13 data_o[17] 7.33406e-05
6 *52:13 *176:8 5.79559e-05
7 *19:13 *52:13 6.12087e-05
*RES
1 data_i[17] *52:13 28.1092 
2 *52:13 *1875:A 23 
*END

*D_NET *53 0.000909999
*CONN
*P data_i[18] I
*I *1876:A I *D sky130_fd_sc_hd__clkbuf_2
*CAP
1 data_i[18] 0.000379443
2 *1876:A 0
3 *53:13 0.000379443
4 *53:13 data_o[18] 5.29942e-05
5 *53:13 *177:6 2.07484e-05
6 *20:13 *53:13 7.73692e-05
*RES
1 data_i[18] *53:13 28.8135 
2 *53:13 *1876:A 23 
*END

*D_NET *54 0.000981772
*CONN
*P data_i[19] I
*I *1877:A I *D sky130_fd_sc_hd__clkbuf_2
*CAP
1 data_i[19] 0.000376838
2 *1877:A 0
3 *54:13 0.000376838
4 *54:13 data_o[19] 7.6667e-05
5 *54:13 *178:6 0.000101762
6 *21:15 *54:13 4.96677e-05
*RES
1 data_i[19] *54:13 28.1092 
2 *54:13 *1877:A 23 
*END

*D_NET *55 0.00116388
*CONN
*P data_i[1] I
*I *1878:A I *D sky130_fd_sc_hd__buf_2
*CAP
1 data_i[1] 0.000420458
2 *1878:A 0
3 *55:13 0.000420458
4 *55:13 data_o[1] 7.33614e-05
5 *55:13 *179:8 3.42479e-05
6 *55:13 *211:11 0.000180241
7 *1840:A *55:13 0
8 *22:15 *55:13 3.51148e-05
*RES
1 data_i[1] *55:13 28.5472 
2 *55:13 *1878:A 23 
*END

*D_NET *56 0.00102751
*CONN
*P data_i[20] I
*I *1879:A I *D sky130_fd_sc_hd__clkbuf_2
*CAP
1 data_i[20] 0.000448438
2 *1879:A 0
3 *56:13 0.000448438
4 *56:13 data_o[19] 0
5 *56:13 data_o[20] 7.73692e-05
6 *56:13 *180:6 1.41244e-05
7 *23:13 *56:13 3.91434e-05
*RES
1 data_i[20] *56:13 29.1656 
2 *56:13 *1879:A 23 
*END

*D_NET *57 0.000862942
*CONN
*P data_i[21] I
*I *1880:A I *D sky130_fd_sc_hd__clkbuf_2
*CAP
1 data_i[21] 0.000351491
2 *1880:A 0
3 *57:13 0.000351491
4 *57:13 data_o[21] 4.96677e-05
5 *57:13 *1937:DI[21] 5.72975e-05
6 *24:21 *57:13 5.29942e-05
*RES
1 data_i[21] *57:13 28.8903 
2 *57:13 *1880:A 23 
*END

*D_NET *58 0.000948465
*CONN
*P data_i[22] I
*I *1881:A I *D sky130_fd_sc_hd__clkbuf_2
*CAP
1 data_i[22] 0.000392948
2 *1881:A 0
3 *58:13 0.000392948
4 *58:13 data_o[21] 0
5 *58:13 data_o[22] 8.06957e-05
6 *58:13 *1937:DI[22] 3.22051e-05
7 *25:15 *58:13 4.96677e-05
*RES
1 data_i[22] *58:13 28.8135 
2 *58:13 *1881:A 23 
*END

*D_NET *59 0.000942173
*CONN
*P data_i[23] I
*I *1882:A I *D sky130_fd_sc_hd__clkbuf_2
*CAP
1 data_i[23] 0.000399194
2 *1882:A 0
3 *59:13 0.000399194
4 *59:13 data_o[22] 0
5 *59:13 data_o[23] 7.6667e-05
6 *59:13 *183:10 1.41244e-05
7 *26:15 *59:13 5.29942e-05
*RES
1 data_i[23] *59:13 28.1092 
2 *59:13 *1882:A 23 
*END

*D_NET *60 0.001062
*CONN
*P data_i[24] I
*I *1883:A I *D sky130_fd_sc_hd__clkbuf_2
*CAP
1 data_i[24] 0.000401084
2 *1883:A 0
3 *60:13 0.000401084
4 *60:13 data_o[24] 7.73692e-05
5 *60:13 *184:8 0.000101762
6 *27:13 *60:13 8.06957e-05
*RES
1 data_i[24] *60:13 29.1656 
2 *60:13 *1883:A 23 
*END

*D_NET *61 0.000887856
*CONN
*P data_i[25] I
*I *1885:A I *D sky130_fd_sc_hd__clkbuf_2
*CAP
1 data_i[25] 0.000358692
2 *1885:A 0
3 *61:15 0.000358692
4 *61:15 data_o[25] 7.8978e-05
5 *61:15 *186:8 1.41244e-05
6 *28:15 *61:15 7.73692e-05
*RES
1 data_i[25] *61:15 28.2542 
2 *61:15 *1885:A 23 
*END

*D_NET *62 0.000860119
*CONN
*P data_i[26] I
*I *1886:A I *D sky130_fd_sc_hd__clkbuf_2
*CAP
1 data_i[26] 0.000360963
2 *1886:A 0
3 *62:13 0.000360963
4 *62:13 data_o[26] 5.29942e-05
5 *62:13 *187:8 3.22051e-05
6 *29:13 *62:13 5.29942e-05
*RES
1 data_i[26] *62:13 29.5946 
2 *62:13 *1886:A 23 
*END

*D_NET *63 0.000922124
*CONN
*P data_i[27] I
*I *1887:A I *D sky130_fd_sc_hd__clkbuf_2
*CAP
1 data_i[27] 0.000401143
2 *1887:A 0
3 *63:13 0.000401143
4 *63:13 data_o[27] 3.91434e-05
5 *63:13 *153:12 0
6 *30:13 *63:13 8.06957e-05
7 *31:15 *63:13 0
*RES
1 data_i[27] *63:13 28.1092 
2 *63:13 *1887:A 23 
*END

*D_NET *64 0.00113226
*CONN
*P data_i[28] I
*I *1888:A I *D sky130_fd_sc_hd__buf_2
*CAP
1 data_i[28] 0.000437287
2 *1888:A 0
3 *64:13 0.000437287
4 *64:13 data_o[28] 7.73692e-05
5 *64:13 *154:12 8.05795e-05
6 *64:13 *189:8 4.67488e-05
7 *31:15 *64:13 5.29942e-05
*RES
1 data_i[28] *64:13 29.2899 
2 *64:13 *1888:A 23 
*END

*D_NET *65 0.00101072
*CONN
*P data_i[29] I
*I *1889:A I *D sky130_fd_sc_hd__buf_2
*CAP
1 data_i[29] 0.000377799
2 *1889:A 0
3 *65:13 0.000377799
4 *65:13 data_o[29] 5.29942e-05
5 *65:13 *154:12 9.17992e-05
6 *65:13 *190:8 3.29613e-05
7 *32:15 *65:13 7.73692e-05
8 *34:13 *65:13 0
*RES
1 data_i[29] *65:13 28.9378 
2 *65:13 *1889:A 23 
*END

*D_NET *66 0.00121955
*CONN
*P data_i[2] I
*I *1890:A I *D sky130_fd_sc_hd__buf_2
*CAP
1 data_i[2] 0.000412851
2 *1890:A 0
3 *66:15 0.000412851
4 *66:15 data_o[2] 3.10686e-05
5 *66:15 *1937:BEN[7] 9.61399e-05
6 *66:15 *191:8 2.07484e-05
7 *66:15 *201:20 0.000106097
8 *66:15 *210:11 0.00010873
9 *33:13 *66:15 3.10686e-05
*RES
1 data_i[2] *66:15 30.2545 
2 *66:15 *1890:A 23 
*END

*D_NET *67 0.00101903
*CONN
*P data_i[30] I
*I *1891:A I *D sky130_fd_sc_hd__buf_2
*CAP
1 data_i[30] 0.000352879
2 *1891:A 0
3 *67:15 0.000352879
4 *67:15 data_o[30] 8.06957e-05
5 *67:15 *154:12 9.4987e-05
6 *67:15 *192:8 5.68958e-05
7 *34:13 *67:15 8.06957e-05
*RES
1 data_i[30] *67:15 29.4349 
2 *67:15 *1891:A 23 
*END

*D_NET *68 0.000903402
*CONN
*P data_i[31] I
*I *1892:A I *D sky130_fd_sc_hd__buf_2
*CAP
1 data_i[31] 0.000382042
2 *1892:A 0
3 *68:15 0.000382042
4 *68:15 data_o[31] 4.96677e-05
5 *68:15 *154:12 0
6 *68:15 *193:8 3.66555e-05
7 *35:13 *68:15 5.29942e-05
*RES
1 data_i[31] *68:15 29.8639 
2 *68:15 *1892:A 23 
*END

*D_NET *69 0.00132692
*CONN
*P data_i[3] I
*I *1893:A I *D sky130_fd_sc_hd__buf_2
*CAP
1 data_i[3] 0.000434507
2 *1893:A 0
3 *69:13 0.000434507
4 *69:13 data_o[3] 3.10686e-05
5 *69:13 *164:18 1.40157e-05
6 *69:13 *164:22 0.000115673
7 *69:13 *194:6 4.96207e-05
8 *69:13 *211:11 0.000176498
9 *5:13 *69:13 0
10 *36:15 *69:13 7.10328e-05
*RES
1 data_i[3] *69:13 28.5472 
2 *69:13 *1893:A 23 
*END

*D_NET *70 0.00120463
*CONN
*P data_i[4] I
*I *1894:A I *D sky130_fd_sc_hd__clkbuf_2
*CAP
1 data_i[4] 0.000434368
2 *1894:A 0
3 *70:15 0.000434368
4 *70:15 data_o[4] 3.10686e-05
5 *70:15 *164:18 0.000125441
6 *70:15 *195:6 5.3304e-05
7 *70:15 *201:18 1.32314e-05
8 *70:15 *211:11 3.84804e-05
9 *6:13 *70:15 0
10 *37:13 *70:15 7.43681e-05
*RES
1 data_i[4] *70:15 27.0825 
2 *70:15 *1894:A 23 
*END

*D_NET *71 0.00134661
*CONN
*P data_i[5] I
*I *1896:A I *D sky130_fd_sc_hd__clkbuf_2
*CAP
1 data_i[5] 0.000408681
2 *1896:A 0
3 *71:13 0.000408681
4 *71:13 *138:20 0.0001486
5 *71:13 *185:10 0.000148281
6 *71:13 *197:6 5.56279e-05
7 *71:13 *211:11 0.000145666
8 *6:13 *71:13 0
9 *38:15 *71:13 3.10774e-05
*RES
1 data_i[5] *71:13 27.7186 
2 *71:13 *1896:A 23 
*END

*D_NET *72 0.00135827
*CONN
*P data_i[6] I
*I *1897:A I *D sky130_fd_sc_hd__buf_2
*CAP
1 data_i[6] 0.00039973
2 *1897:A 0
3 *72:13 0.00039973
4 *72:13 data_o[6] 7.26504e-05
5 *72:13 *185:10 0.00018293
6 *72:13 *198:6 4.96303e-05
7 *72:13 *211:11 0.000180241
8 *39:15 *72:13 7.33614e-05
*RES
1 data_i[6] *72:13 28.5472 
2 *72:13 *1897:A 23 
*END

*D_NET *73 0.00137481
*CONN
*P data_i[7] I
*I *1898:A I *D sky130_fd_sc_hd__buf_2
*CAP
1 data_i[7] 0.000409163
2 *1898:A 0
3 *73:13 0.000409163
4 *73:13 data_o[7] 7.26504e-05
5 *73:13 *185:10 0.00018293
6 *73:13 *199:8 4.96303e-05
7 *73:13 *211:11 0.000180241
8 *40:15 *73:13 7.10328e-05
*RES
1 data_i[7] *73:13 28.5472 
2 *73:13 *1898:A 23 
*END

*D_NET *74 0.00141442
*CONN
*P data_i[8] I
*I *1899:A I *D sky130_fd_sc_hd__buf_2
*CAP
1 data_i[8] 0.000442837
2 *1899:A 0
3 *74:13 0.000442837
4 *74:13 data_o[8] 6.93152e-05
5 *74:13 *185:10 0.000179769
6 *74:13 *200:8 7.15126e-05
7 *74:13 *211:11 0.00017708
8 *9:13 *74:13 0
9 *41:15 *74:13 3.10686e-05
*RES
1 data_i[8] *74:13 28.5472 
2 *74:13 *1899:A 23 
*END

*D_NET *75 0.00276841
*CONN
*P data_i[9] I
*I *1900:A I *D sky130_fd_sc_hd__buf_2
*CAP
1 data_i[9] 0.0012033
2 *1900:A 0
3 *75:17 0.0012033
4 *75:17 data_o[9] 0.000139901
5 *75:17 *124:10 3.34756e-05
6 *75:17 *133:10 1.94522e-05
7 *75:17 *209:11 0.000125375
8 *42:13 *75:17 4.35972e-05
*RES
1 data_i[9] *75:17 30.0651 
2 *75:17 *1900:A 23 
*END

*D_NET *76 0.000867777
*CONN
*P data_o[0] O
*I *1914:X O *D sky130_fd_sc_hd__buf_2
*CAP
1 data_o[0] 0.000304782
2 *1914:X 0.000304782
3 data_o[0] *206:17 6.02514e-05
4 data_o[0] *211:11 0
5 *1840:A data_o[0] 0.000119557
6 *44:13 data_o[0] 7.84055e-05
*RES
1 *1914:X data_o[0] 48.5734 
*END

*D_NET *77 0.000949365
*CONN
*P data_o[10] O
*I *1915:X O *D sky130_fd_sc_hd__buf_2
*CAP
1 data_o[10] 0.000373683
2 *1915:X 0.000373683
3 data_o[10] *113:12 3.46398e-05
4 data_o[10] *185:10 5.71645e-05
5 *13:15 data_o[10] 3.51148e-05
6 *45:13 data_o[10] 7.5079e-05
7 *46:13 data_o[10] 0
*RES
1 *1915:X data_o[10] 48.5734 
*END

*D_NET *78 0.000880198
*CONN
*P data_o[11] O
*I *1916:X O *D sky130_fd_sc_hd__buf_2
*CAP
1 data_o[11] 0.000311008
2 *1916:X 0.000311008
3 data_o[11] *185:10 5.78648e-05
4 *1834:A data_o[11] 0.000119574
5 *46:13 data_o[11] 8.07429e-05
*RES
1 *1916:X data_o[11] 48.5734 
*END

*D_NET *79 0.000827265
*CONN
*P data_o[12] O
*I *1917:X O *D sky130_fd_sc_hd__clkbuf_4
*CAP
1 data_o[12] 0.000292248
2 *1917:X 0.000292248
3 data_o[12] *137:10 0
4 data_o[12] *171:8 5.58873e-06
5 data_o[12] *211:11 3.65014e-05
6 *1869:A data_o[12] 0.000114191
7 *1870:A data_o[12] 0
8 *15:15 data_o[12] 8.64891e-05
*RES
1 *1917:X data_o[12] 49.1089 
*END

*D_NET *80 0.00090645
*CONN
*P data_o[13] O
*I *1918:X O *D sky130_fd_sc_hd__clkbuf_4
*CAP
1 data_o[13] 6.07862e-05
2 *1918:X 0.000321464
3 *80:12 0.00038225
4 *80:12 *138:10 0
5 *80:12 *210:19 5.31385e-05
6 *1870:A data_o[13] 4.96677e-05
7 *16:13 data_o[13] 3.91434e-05
8 *16:13 *80:12 0
9 *49:13 data_o[13] 0
*RES
1 *1918:X *80:12 42.8782 
2 *80:12 data_o[13] 8.32853 
*END

*D_NET *81 0.000807173
*CONN
*P data_o[14] O
*I *1919:X O *D sky130_fd_sc_hd__buf_2
*CAP
1 data_o[14] 0.000274349
2 *1919:X 0.000274349
3 data_o[14] *175:20 1.12863e-05
4 data_o[14] *211:11 0
5 *1837:A data_o[14] 0.000123594
6 *49:13 data_o[14] 0.000123594
*RES
1 *1919:X data_o[14] 48.5734 
*END

*D_NET *82 0.000877383
*CONN
*P data_o[15] O
*I *1920:X O *D sky130_fd_sc_hd__buf_2
*CAP
1 data_o[15] 0.000319763
2 *1920:X 0.000319763
3 data_o[15] *175:20 0.00012827
4 data_o[15] *211:11 0
5 *18:15 data_o[15] 7.73692e-05
6 *50:17 data_o[15] 3.22181e-05
*RES
1 *1920:X data_o[15] 48.5734 
*END

*D_NET *83 0.000789714
*CONN
*P data_o[16] O
*I *1921:X O *D sky130_fd_sc_hd__buf_2
*CAP
1 data_o[16] 0.000328012
2 *1921:X 0.000328012
3 *19:13 data_o[16] 5.29942e-05
4 *51:13 data_o[16] 8.06957e-05
5 *52:13 data_o[16] 0
*RES
1 *1921:X data_o[16] 48.5734 
*END

*D_NET *84 0.000864958
*CONN
*P data_o[17] O
*I *1922:X O *D sky130_fd_sc_hd__clkbuf_4
*CAP
1 data_o[17] 0.000346295
2 *1922:X 0.000346295
3 data_o[17] *1937:BEN[18] 1.83327e-05
4 *20:13 data_o[17] 8.06957e-05
5 *52:13 data_o[17] 7.33406e-05
*RES
1 *1922:X data_o[17] 49.8132 
*END

*D_NET *85 0.000799814
*CONN
*P data_o[18] O
*I *1923:X O *D sky130_fd_sc_hd__clkbuf_4
*CAP
1 data_o[18] 4.14539e-05
2 *1923:X 0.000305459
3 *85:12 0.000346913
4 *21:15 data_o[18] 5.29942e-05
5 *53:13 data_o[18] 5.29942e-05
*RES
1 *1923:X *85:12 42.8782 
2 *85:12 data_o[18] 8.32853 
*END

*D_NET *86 0.000828762
*CONN
*P data_o[19] O
*I *1924:X O *D sky130_fd_sc_hd__buf_2
*CAP
1 data_o[19] 0.00032635
2 *1924:X 0.00032635
3 data_o[19] *215:15 6.02514e-05
4 *23:13 data_o[19] 3.91434e-05
5 *54:13 data_o[19] 7.6667e-05
6 *56:13 data_o[19] 0
*RES
1 *1924:X data_o[19] 48.5734 
*END

*D_NET *87 0.000910172
*CONN
*P data_o[1] O
*I *1925:X O *D sky130_fd_sc_hd__clkbuf_4
*CAP
1 data_o[1] 0.000344987
2 *1925:X 0.000344987
3 data_o[1] *206:17 3.19211e-05
4 data_o[1] *211:11 3.65014e-05
5 *3:17 data_o[1] 7.84143e-05
6 *55:13 data_o[1] 7.33614e-05
*RES
1 *1925:X data_o[1] 49.1089 
*END

*D_NET *88 0.000811745
*CONN
*P data_o[20] O
*I *1926:X O *D sky130_fd_sc_hd__buf_2
*CAP
1 data_o[20] 0.000303372
2 *1926:X 0.000303372
3 *24:21 data_o[20] 0.000127632
4 *56:13 data_o[20] 7.73692e-05
*RES
1 *1926:X data_o[20] 48.5734 
*END

*D_NET *89 0.000846434
*CONN
*P data_o[21] O
*I *1927:X O *D sky130_fd_sc_hd__buf_2
*CAP
1 data_o[21] 0.000371886
2 *1927:X 0.000371886
3 *24:21 data_o[21] 0
4 *25:15 data_o[21] 5.29942e-05
5 *57:13 data_o[21] 4.96677e-05
6 *58:13 data_o[21] 0
*RES
1 *1927:X data_o[21] 48.5734 
*END

*D_NET *90 0.000843416
*CONN
*P data_o[22] O
*I *1928:X O *D sky130_fd_sc_hd__buf_2
*CAP
1 data_o[22] 0.000330822
2 *1928:X 0.000330822
3 data_o[22] *220:17 4.80826e-05
4 *26:15 data_o[22] 5.29942e-05
5 *58:13 data_o[22] 8.06957e-05
6 *59:13 data_o[22] 0
*RES
1 *1928:X data_o[22] 48.5734 
*END

*D_NET *91 0.000823742
*CONN
*P data_o[23] O
*I *1929:X O *D sky130_fd_sc_hd__clkbuf_4
*CAP
1 data_o[23] 0.00033319
2 *1929:X 0.00033319
3 data_o[23] *148:12 0
4 *27:13 data_o[23] 8.06957e-05
5 *59:13 data_o[23] 7.6667e-05
*RES
1 *1929:X data_o[23] 49.1089 
*END

*D_NET *92 0.000805746
*CONN
*P data_o[24] O
*I *1930:X O *D sky130_fd_sc_hd__buf_2
*CAP
1 data_o[24] 0.000325504
2 *1930:X 0.000325504
3 *28:15 data_o[24] 7.73692e-05
4 *60:13 data_o[24] 7.73692e-05
*RES
1 *1930:X data_o[24] 48.5734 
*END

*D_NET *93 0.000779435
*CONN
*P data_o[25] O
*I *1931:X O *D sky130_fd_sc_hd__buf_2
*CAP
1 data_o[25] 0.00030988
2 *1931:X 0.00030988
3 *29:13 data_o[25] 8.06957e-05
4 *61:15 data_o[25] 7.8978e-05
*RES
1 *1931:X data_o[25] 48.5734 
*END

*D_NET *94 0.000858462
*CONN
*P data_o[26] O
*I *1932:X O *D sky130_fd_sc_hd__buf_2
*CAP
1 data_o[26] 0.000340027
2 *1932:X 0.000340027
3 *29:13 data_o[26] 0
4 *30:13 data_o[26] 0.000125414
5 *62:13 data_o[26] 5.29942e-05
*RES
1 *1932:X data_o[26] 48.5734 
*END

*D_NET *95 0.000847064
*CONN
*P data_o[27] O
*I *1933:X O *D sky130_fd_sc_hd__buf_2
*CAP
1 data_o[27] 3.06194e-05
2 *1933:X 0.000353769
3 *95:10 0.000384389
4 *95:10 *188:10 0
5 *31:15 data_o[27] 3.91434e-05
6 *31:15 *95:10 0
7 *63:13 data_o[27] 3.91434e-05
*RES
1 *1933:X *95:10 43.2096 
2 *95:10 data_o[27] 8.24267 
*END

*D_NET *96 0.000922777
*CONN
*P data_o[28] O
*I *1934:X O *D sky130_fd_sc_hd__clkbuf_4
*CAP
1 data_o[28] 0.000230748
2 *1934:X 0.000230748
3 data_o[28] *154:12 0.000154677
4 data_o[28] *188:10 0.000151866
5 *32:15 data_o[28] 7.73692e-05
6 *64:13 data_o[28] 7.73692e-05
*RES
1 *1934:X data_o[28] 48.8397 
*END

*D_NET *97 0.000833199
*CONN
*P data_o[29] O
*I *1935:X O *D sky130_fd_sc_hd__clkbuf_4
*CAP
1 data_o[29] 4.86261e-05
2 *1935:X 0.000316642
3 *97:12 0.000365269
4 *97:12 *154:12 0
5 *34:13 data_o[29] 4.96677e-05
6 *65:13 data_o[29] 5.29942e-05
*RES
1 *1935:X *97:12 42.8782 
2 *97:12 data_o[29] 8.32853 
*END

*D_NET *98 0.00110297
*CONN
*P data_o[2] O
*I *1936:X O *D sky130_fd_sc_hd__buf_2
*CAP
1 data_o[2] 0.000371105
2 *1936:X 0.000371105
3 data_o[2] *121:22 0.00012308
4 data_o[2] *191:12 8.50457e-05
5 data_o[2] *206:17 2.03626e-05
6 *1862:A data_o[2] 0.000101198
7 *33:13 data_o[2] 0
8 *66:15 data_o[2] 3.10686e-05
*RES
1 *1936:X data_o[2] 48.5734 
*END

*D_NET *99 0.000845362
*CONN
*P data_o[30] O
*I *1905:X O *D sky130_fd_sc_hd__buf_2
*CAP
1 data_o[30] 0.000305584
2 *1905:X 0.000305584
3 data_o[30] *154:12 5.40266e-05
4 data_o[30] *192:12 2.04934e-05
5 *35:13 data_o[30] 7.8978e-05
6 *67:15 data_o[30] 8.06957e-05
*RES
1 *1905:X data_o[30] 48.5734 
*END

*D_NET *100 0.00081525
*CONN
*P data_o[31] O
*I *1906:X O *D sky130_fd_sc_hd__buf_2
*CAP
1 data_o[31] 0.000366831
2 *1906:X 0.000366831
3 data_o[31] *192:12 3.19211e-05
4 *35:13 data_o[31] 0
5 *68:15 data_o[31] 4.96677e-05
*RES
1 *1906:X data_o[31] 48.5734 
*END

*D_NET *101 0.00110655
*CONN
*P data_o[3] O
*I *1907:X O *D sky130_fd_sc_hd__clkbuf_4
*CAP
1 data_o[3] 7.2631e-05
2 *1907:X 0.000318267
3 *101:10 0.000390898
4 *101:10 *201:20 0.000131661
5 *101:10 *210:11 0.000134294
6 *5:13 data_o[3] 2.77333e-05
7 *69:13 data_o[3] 3.10686e-05
*RES
1 *1907:X *101:10 43.2096 
2 *101:10 data_o[3] 8.24267 
*END

*D_NET *102 0.00110744
*CONN
*P data_o[4] O
*I *1908:X O *D sky130_fd_sc_hd__buf_2
*CAP
1 data_o[4] 6.38826e-05
2 *1908:X 0.000327277
3 *102:10 0.00039116
4 *102:10 *122:24 0.000118858
5 *102:10 *200:18 5.79413e-06
6 *102:10 *201:18 0
7 *102:10 *210:11 0.000134294
8 *6:13 data_o[4] 3.5106e-05
9 *70:15 data_o[4] 3.10686e-05
*RES
1 *1908:X *102:10 43.2096 
2 *102:10 data_o[4] 8.24267 
*END

*D_NET *103 0.00107079
*CONN
*P data_o[5] O
*I *1909:X O *D sky130_fd_sc_hd__clkbuf_4
*CAP
1 data_o[5] 5.84194e-05
2 *1909:X 0.000377158
3 *103:12 0.000435578
4 data_o[5] *138:20 6.49157e-05
5 *103:12 *122:24 5.05059e-05
6 *103:12 *210:11 5.31385e-05
7 *7:13 data_o[5] 3.10774e-05
*RES
1 *1909:X *103:12 43.3546 
2 *103:12 data_o[5] 8.24267 
*END

*D_NET *104 0.00106401
*CONN
*P data_o[6] O
*I *1910:X O *D sky130_fd_sc_hd__buf_2
*CAP
1 data_o[6] 0.000352959
2 *1910:X 0.000352959
3 data_o[6] *164:18 0.00012827
4 data_o[6] *201:12 0.000126103
5 *8:15 data_o[6] 3.10686e-05
6 *40:15 data_o[6] 0
7 *72:13 data_o[6] 7.26504e-05
*RES
1 *1910:X data_o[6] 48.5734 
*END

*D_NET *105 0.00107992
*CONN
*P data_o[7] O
*I *1911:X O *D sky130_fd_sc_hd__buf_2
*CAP
1 data_o[7] 0.000342457
2 *1911:X 0.000342457
3 data_o[7] *201:12 0.000122969
4 data_o[7] *204:11 0.000125015
5 *9:13 data_o[7] 7.43681e-05
6 *73:13 data_o[7] 7.26504e-05
*RES
1 *1911:X data_o[7] 48.5734 
*END

*D_NET *106 0.00119895
*CONN
*P data_o[8] O
*I *1912:X O *D sky130_fd_sc_hd__clkbuf_4
*CAP
1 data_o[8] 0.00034473
2 *1912:X 0.00034473
3 data_o[8] *185:10 0.000180939
4 data_o[8] *201:10 0.000180818
5 *10:13 data_o[8] 7.84143e-05
6 *74:13 data_o[8] 6.93152e-05
*RES
1 *1912:X data_o[8] 49.8132 
*END

*D_NET *107 0.000997477
*CONN
*P data_o[9] O
*I *1913:X O *D sky130_fd_sc_hd__buf_2
*CAP
1 data_o[9] 0.000296514
2 *1913:X 0.000296514
3 data_o[9] *185:10 5.78648e-05
4 data_o[9] *204:11 0.00012827
5 *12:13 data_o[9] 7.84143e-05
6 *75:17 data_o[9] 0.000139901
*RES
1 *1913:X data_o[9] 48.5734 
*END

*D_NET *108 0.00119061
*CONN
*P en_i I
*I *1901:A I *D sky130_fd_sc_hd__clkbuf_4
*CAP
1 en_i 0.000326262
2 *1901:A 0.000326262
3 *1901:A *1902:A 0.00013501
4 *1901:A *202:10 3.74247e-05
5 *1901:A *202:24 2.01437e-05
6 *1901:A *206:13 0.000154409
7 *1901:A *211:11 0
8 *43:11 *1901:A 0.000191097
*RES
1 en_i *1901:A 49.1831 
*END

*D_NET *109 0.00132572
*CONN
*P read_en_i I
*I *1902:A I *D sky130_fd_sc_hd__clkbuf_4
*CAP
1 read_en_i 0.000406082
2 *1902:A 0.000406082
3 *1902:A *202:24 6.47885e-05
4 *1902:A *203:10 5.02282e-05
5 *1902:A *203:20 1.748e-05
6 *1902:A *206:13 0.000206902
7 *1902:A *211:11 0
8 *1901:A *1902:A 0.00013501
9 *1:15 *1902:A 3.91434e-05
*RES
1 read_en_i *1902:A 49.8874 
*END

*D_NET *112 0.0315546
*CONN
*I *1937:AD[0] I *D CF_SRAM_1024x32
*I *1829:X O *D sky130_fd_sc_hd__clkbuf_4
*CAP
1 *1937:AD[0] 0.00186848
2 *1829:X 0.000369101
3 *112:10 0.00535892
4 *112:8 0.00385954
5 *1937:AD[0] *1937:AD[1] 1.73074e-05
6 *1937:AD[0] *1937:AD[2] 0
7 *1937:AD[0] *1937:R_WB 8.88552e-05
8 *112:8 *205:7 0.000484346
9 *112:10 *133:10 0.0083295
10 *112:10 *141:18 0
11 *112:10 *169:10 0.00918093
12 *112:10 *170:10 0.000323645
13 *112:10 *173:16 0.00167397
14 *112:10 *209:11 0
*RES
1 *1829:X *112:8 43.3857 
2 *112:8 *112:10 135.016 
3 *112:10 *1937:AD[0] 47.2055 
*END

*D_NET *113 0.00845031
*CONN
*I *1937:AD[9] I *D CF_SRAM_1024x32
*I *1830:X O *D sky130_fd_sc_hd__buf_2
*CAP
1 *1937:AD[9] 0.0020399
2 *1830:X 0.000131282
3 *113:17 1.71225e-06
4 *113:12 0.0026267
5 *113:8 0.000719792
6 *1937:AD[9] *230:DIODE 4.67488e-05
7 *1937:AD[9] *1937:AD[3] 0
8 *1937:AD[9] *1937:AD[7] 0
9 *1937:AD[9] *1937:AD[8] 0.00124659
10 *113:12 *204:11 0.000349994
11 *113:12 *206:19 0.00122242
12 *113:17 *1937:AD[3] 0
13 data_o[10] *113:12 3.46398e-05
14 *10:13 *113:8 3.05299e-05
*RES
1 *1830:X *113:8 39.5743 
2 *113:8 *113:12 31.6957 
3 *113:12 *1937:AD[9] 35.4007 
4 *1937:AD[9] *113:17 0.15037 
*END

*D_NET *114 0.00793788
*CONN
*I *1905:A I *D sky130_fd_sc_hd__buf_2
*I *1937:DO[30] O *D CF_SRAM_1024x32
*CAP
1 *1905:A 0
2 *1937:DO[30] 0.00134057
3 *114:15 0.000779989
4 *114:9 0.00212055
5 *114:9 *1937:DI[30] 0.00173206
6 *114:15 *190:12 0.00072379
7 *114:15 *192:12 0.000236445
8 *114:15 *193:12 0.00100447
*RES
1 *1937:DO[30] *114:9 49.617 
2 *114:9 *114:15 36.7914 
3 *114:15 *1905:A 23 
*END

*D_NET *115 0.00773075
*CONN
*I *1906:A I *D sky130_fd_sc_hd__buf_2
*I *1937:DO[31] O *D CF_SRAM_1024x32
*CAP
1 *1906:A 0
2 *1937:DO[31] 0.00140632
3 *115:11 0.000944715
4 *115:7 0.00235104
5 *115:7 *1937:DI[31] 0.00176122
6 *115:11 *192:12 0.000901192
7 *115:11 *193:12 0.000366264
*RES
1 *1937:DO[31] *115:7 36.0801 
2 *115:7 *115:11 37.6821 
3 *115:11 *1906:A 38 
*END

*D_NET *116 0.01141
*CONN
*I *1907:A I *D sky130_fd_sc_hd__clkbuf_4
*I *1937:DO[3] O *D CF_SRAM_1024x32
*CAP
1 *1907:A 0
2 *1937:DO[3] 0.00117984
3 *116:15 0.00126452
4 *116:11 0.00247738
5 *116:9 0.0023927
6 *116:9 *1937:DI[3] 0.000371553
7 *116:9 *207:8 0.000724802
8 *116:11 *117:11 0.000973594
9 *116:11 *134:10 0.000792736
10 *116:11 *160:12 0.000940404
11 *116:11 *161:12 6.12165e-05
12 *116:11 *166:12 0.000231257
13 *116:11 *216:31 0
*RES
1 *1937:DO[3] *116:9 36.5532 
2 *116:9 *116:11 35.3593 
3 *116:11 *116:15 29.9143 
4 *116:15 *1907:A 23 
*END

*D_NET *117 0.00792586
*CONN
*I *1908:A I *D sky130_fd_sc_hd__buf_2
*I *1937:DO[4] O *D CF_SRAM_1024x32
*CAP
1 *1908:A 0
2 *1937:DO[4] 0.00182459
3 *117:15 0.00122237
4 *117:11 0.00304696
5 *117:11 *1937:DI[4] 0
6 *117:11 *144:20 4.55689e-05
7 *117:11 *161:12 0.00034967
8 *117:11 *166:12 0.000294636
9 *117:15 *179:20 0.000168472
10 *116:11 *117:11 0.000973594
*RES
1 *1937:DO[4] *117:11 49.2304 
2 *117:11 *117:15 30.8671 
3 *117:15 *1908:A 23 
*END

*D_NET *118 0.00687269
*CONN
*I *1909:A I *D sky130_fd_sc_hd__clkbuf_4
*I *1937:DO[5] O *D CF_SRAM_1024x32
*CAP
1 *1909:A 0
2 *1937:DO[5] 0.00171235
3 *118:15 0.000984164
4 *118:11 0.00269651
5 *118:11 *1937:BEN[4] 0.000644834
6 *118:11 *1937:DI[5] 0
7 *118:11 *136:10 0.000493756
8 *118:11 *161:6 0.000341076
*RES
1 *1937:DO[5] *118:11 47.4075 
2 *118:11 *118:15 27.0557 
3 *118:15 *1909:A 23 
*END

*D_NET *119 0.0111688
*CONN
*I *1910:A I *D sky130_fd_sc_hd__buf_2
*I *1937:DO[6] O *D CF_SRAM_1024x32
*CAP
1 *1910:A 0.00163644
2 *1937:DO[6] 0.00124473
3 *119:33 0.00196726
4 *119:27 0.000761786
5 *119:19 0.0016757
6 *119:19 *1937:DI[6] 0
7 *119:19 *152:22 0.000636776
8 *119:19 *198:18 0.000633026
9 *119:19 *216:29 0
10 *119:27 *156:16 0.00100156
11 *119:27 *194:10 0.00100379
12 *119:27 *203:20 0.000118379
13 *119:33 *174:10 0.000489385
*RES
1 *1937:DO[6] *119:19 46.0373 
2 *119:19 *119:27 37.9246 
3 *119:27 *119:33 36.4836 
4 *119:33 *1910:A 44.1079 
*END

*D_NET *120 0.0167604
*CONN
*I *1911:A I *D sky130_fd_sc_hd__buf_2
*I *1937:DO[7] O *D CF_SRAM_1024x32
*CAP
1 *1911:A 0
2 *1937:DO[7] 0.000935916
3 *120:30 0.000971663
4 *120:22 0.00222863
5 *120:12 0.00219288
6 *120:4 0
7 *120:12 *1937:DI[7] 0.00240674
8 *120:12 *134:16 0.000776985
9 *120:22 *162:12 0.00222291
10 *120:22 *199:14 0.00278848
11 *120:30 *1937:DI[2] 0.000400522
12 *120:30 *141:18 0.00032576
13 *120:30 *167:24 0.000521551
14 *120:30 *199:12 0.000988393
*RES
1 *1937:DO[7] *120:4 0.156154 
2 *1937:DO[7] *120:12 41.825 
3 *120:12 *120:22 45.8038 
4 *120:22 *120:30 47.6604 
5 *120:30 *1911:A 23 
*END

*D_NET *121 0.0207089
*CONN
*I *1912:A I *D sky130_fd_sc_hd__clkbuf_4
*I *1937:DO[8] O *D CF_SRAM_1024x32
*CAP
1 *1912:A 0
2 *1937:DO[8] 0.00229618
3 *121:26 0.00174104
4 *121:24 0.00174104
5 *121:22 0.000502168
6 *121:14 0.00279835
7 *121:4 0
8 *121:14 *1937:DI[8] 0.00200099
9 *121:22 *159:6 0.000143259
10 *121:22 *164:22 0.000671049
11 *121:22 *191:12 0.000205324
12 *121:22 *206:17 9.46251e-05
13 *121:22 *211:11 3.78747e-05
14 *121:26 *191:12 0.000649259
15 *121:26 *191:16 0.0024471
16 *121:26 *204:11 0.000358113
17 *121:26 *206:19 0.00464055
18 data_o[2] *121:22 0.00012308
19 *3:17 *121:14 0.000101925
20 *33:13 *121:22 8.26569e-05
21 *36:15 *121:22 7.43212e-05
*RES
1 *1937:DO[8] *121:4 0.184545 
2 *1937:DO[8] *121:14 38.6529 
3 *121:14 *121:22 44.8729 
4 *121:22 *121:24 15 
5 *121:24 *121:26 62.8264 
6 *121:26 *1912:A 38 
*END

*D_NET *122 0.0242263
*CONN
*I *1913:A I *D sky130_fd_sc_hd__buf_2
*I *236:DIODE I *D sky130_fd_sc_hd__diode_2
*I *1937:DO[9] O *D CF_SRAM_1024x32
*CAP
1 *1913:A 0
2 *236:DIODE 0.000121221
3 *1937:DO[9] 0.00189266
4 *122:30 0.00051846
5 *122:26 0.00102333
6 *122:24 0.00113959
7 *122:14 0.00108411
8 *122:12 0.000570603
9 *122:10 0.00189266
10 *122:4 0
11 *122:10 *1937:DI[9] 0.00196442
12 *122:10 *141:8 5.01469e-05
13 *122:14 *200:18 0.00226657
14 *122:14 *201:20 0.00042864
15 *122:14 *205:11 0.00317568
16 *122:24 *200:18 0.00126012
17 *122:24 *201:18 6.17437e-06
18 *122:24 *205:11 8.32909e-06
19 *122:24 *210:11 0.000462223
20 *122:26 *196:10 0.000590975
21 *122:26 *200:14 0.00205454
22 *122:26 *205:11 0.00333078
23 *122:26 *210:11 0
24 *22:15 *122:10 0
25 *38:15 *122:24 0.000215734
26 *102:10 *122:24 0.000118858
27 *103:12 *122:24 5.05059e-05
*RES
1 *1937:DO[9] *122:4 0.225556 
2 *1937:DO[9] *122:10 41.5943 
3 *122:10 *122:12 15 
4 *122:12 *122:14 40.2893 
5 *122:14 *122:24 49.0675 
6 *122:24 *122:26 42.2261 
7 *122:26 *122:30 20.8621 
8 *122:30 *236:DIODE 24.5743 
9 *122:30 *1913:A 23 
*END

*D_NET *123 0.00139571
*CONN
*I *1937:SM I *D CF_SRAM_1024x32
*I *1938:LO O *D sky130_fd_sc_hd__conb_1
*CAP
1 *1937:SM 0.000697856
2 *1938:LO 0.000697856
3 *1937:SM *1937:ScanInDR 0
*RES
1 *1938:LO *1937:SM 37.3705 
*END

*D_NET *124 0.0262146
*CONN
*I *1937:BEN[0] I *D CF_SRAM_1024x32
*I *1831:X O *D sky130_fd_sc_hd__buf_2
*CAP
1 *1937:BEN[0] 0.00243202
2 *1831:X 0.00043886
3 *124:10 0.00490317
4 *124:8 0.00291001
5 *1937:BEN[0] *1937:ScanInDL 0
6 *124:10 *133:10 0.00768806
7 *124:10 *165:10 0.000411455
8 *124:10 *167:10 0.00572045
9 *124:10 *171:16 0.00128423
10 *124:10 *209:11 0.000335982
11 *11:13 *124:8 5.68958e-05
12 *75:17 *124:10 3.34756e-05
*RES
1 *1831:X *124:8 43.3857 
2 *124:8 *124:10 102.619 
3 *124:10 *1937:BEN[0] 46.8482 
*END

*D_NET *125 0.0017975
*CONN
*I *1937:ScanInCC I *D CF_SRAM_1024x32
*I *1939:LO O *D sky130_fd_sc_hd__conb_1
*CAP
1 *1937:ScanInCC 0.000517824
2 *1939:LO 0.000510485
3 *125:9 7.33821e-06
4 *1937:ScanInCC *1937:AD[3] 0.000661988
5 *1937:ScanInCC *204:7 9.98657e-05
*RES
1 *1939:LO *1937:ScanInCC 36.485 
2 *1937:ScanInCC *125:9 0.155357 
*END

*D_NET *126 0.00232564
*CONN
*I *1937:ScanInDL I *D CF_SRAM_1024x32
*I *1940:LO O *D sky130_fd_sc_hd__conb_1
*CAP
1 *1937:ScanInDL 0.000546675
2 *1940:LO 0.000546675
3 *1937:ScanInDL *1937:DI[0] 0.00123229
4 *1937:BEN[0] *1937:ScanInDL 0
*RES
1 *1940:LO *1937:ScanInDL 37.3239 
*END

*D_NET *127 0.0015385
*CONN
*I *1937:ScanInDR I *D CF_SRAM_1024x32
*I *1941:LO O *D sky130_fd_sc_hd__conb_1
*CAP
1 *1937:ScanInDR 0.000676875
2 *1941:LO 0.000676875
3 *1937:ScanInDR *212:9 0.00018475
4 *1937:SM *1937:ScanInDR 0
*RES
1 *1941:LO *1937:ScanInDR 37.7279 
*END

*D_NET *128 0.00232678
*CONN
*I *1937:TM I *D CF_SRAM_1024x32
*I *1942:LO O *D sky130_fd_sc_hd__conb_1
*CAP
1 *1937:TM 0.000523004
2 *1942:LO 0.000523004
3 *1937:TM *1937:WLBI 0.00128078
*RES
1 *1942:LO *1937:TM 37.9868 
*END

*D_NET *129 0.00275654
*CONN
*I *1937:WLBI I *D CF_SRAM_1024x32
*I *1943:LO O *D sky130_fd_sc_hd__conb_1
*CAP
1 *1937:WLBI 0.000324575
2 *1943:LO 0.000324575
3 *1937:WLBI *1937:DI[17] 0
4 *1937:WLBI *213:11 0.000826612
5 *1937:TM *1937:WLBI 0.00128078
*RES
1 *1943:LO *1937:WLBI 39.7216 
*END

*D_NET *130 0.00223735
*CONN
*I *1937:WLOFF I *D CF_SRAM_1024x32
*I *1944:LO O *D sky130_fd_sc_hd__conb_1
*CAP
1 *1937:WLOFF 0.000496474
2 *1944:LO 9.99564e-05
3 *130:8 0.000596431
4 *1937:WLOFF *1937:EN 0.00104449
5 *1937:WLOFF *1937:R_WB 0
*RES
1 *1944:LO *130:8 39.2014 
2 *130:8 *1937:WLOFF 29.6709 
*END

*D_NET *131 0.0337663
*CONN
*I *1937:vpwrac I *D CF_SRAM_1024x32
*I *1945:HI O *D sky130_fd_sc_hd__conb_1
*CAP
1 *1937:vpwrac 0.00252308
2 *1945:HI 0.00037006
3 *131:10 0.00894982
4 *131:8 0.0067968
5 *1937:vpwrac *1937:vpwrpc 0.00146429
6 *131:8 *1937:AD[2] 0.0010619
7 *131:10 *132:10 0.0126003
*RES
1 *1945:HI *131:8 49.5793 
2 *131:8 *131:10 170.054 
3 *131:10 *1937:vpwrac 43.2015 
*END

*D_NET *132 0.0330177
*CONN
*I *1937:vpwrpc I *D CF_SRAM_1024x32
*I *1946:HI O *D sky130_fd_sc_hd__conb_1
*CAP
1 *1937:vpwrpc 0.00276533
2 *1946:HI 0.000153428
3 *132:10 0.00817169
4 *132:8 0.00540636
5 *132:6 0.000153428
6 *132:6 *1937:AD[1] 0.00115145
7 *132:6 *1937:AD[2] 0.00115145
8 *1937:vpwrac *1937:vpwrpc 0.00146429
9 *131:10 *132:10 0.0126003
*RES
1 *1946:HI *132:6 35.5321 
2 *132:6 *132:8 15 
3 *132:8 *132:10 163.715 
4 *132:10 *1937:vpwrpc 44.2057 
*END

*D_NET *133 0.0293986
*CONN
*I *1937:BEN[10] I *D CF_SRAM_1024x32
*I *1832:X O *D sky130_fd_sc_hd__buf_2
*CAP
1 *1937:BEN[10] 0.00236374
2 *1832:X 0.000454905
3 *133:10 0.00528945
4 *133:8 0.00338061
5 *133:8 *204:7 0.000143387
6 *133:10 *169:10 0.000186925
7 *133:10 *171:16 0.00149007
8 *133:10 *209:11 0
9 *12:13 *133:8 5.25022e-05
10 *75:17 *133:10 1.94522e-05
11 *112:10 *133:10 0.0083295
12 *124:10 *133:10 0.00768806
*RES
1 *1832:X *133:8 43.8621 
2 *133:8 *133:10 116.704 
3 *133:10 *1937:BEN[10] 47.9668 
*END

*D_NET *134 0.0264352
*CONN
*I *1937:BEN[11] I *D CF_SRAM_1024x32
*I *1833:X O *D sky130_fd_sc_hd__clkbuf_4
*CAP
1 *1937:BEN[11] 0.000792943
2 *1833:X 0.00123311
3 *134:18 0.00289666
4 *134:16 0.00253213
5 *134:10 0.00348631
6 *134:8 0.00305791
7 *134:6 0.00123311
8 *134:6 *1937:AD[6] 0.000108258
9 *134:10 *160:12 0.000938141
10 *134:10 *166:12 0
11 *134:10 *216:31 0
12 *134:18 *136:18 0.000979033
13 *134:18 *152:12 0.000314374
14 *134:18 *156:16 0.000262852
15 *134:18 *203:20 0.000395357
16 *134:18 *228:21 0.000218943
17 *13:15 *134:6 2.07484e-05
18 *43:13 *134:10 0.00639561
19 *116:11 *134:10 0.000792736
20 *120:12 *134:16 0.000776985
*RES
1 *1833:X *134:6 37.4379 
2 *134:6 *134:8 15 
3 *134:8 *134:10 86.42 
4 *134:10 *134:16 38.7207 
5 *134:16 *134:18 50.1493 
6 *134:18 *1937:BEN[11] 29.8832 
*END

*D_NET *135 0.0349992
*CONN
*I *1937:BEN[12] I *D CF_SRAM_1024x32
*I *1834:X O *D sky130_fd_sc_hd__clkbuf_4
*CAP
1 *1937:BEN[12] 0.0021601
2 *1834:X 0.000595453
3 *135:10 0.00665559
4 *135:8 0.00509093
5 *135:10 *141:18 0.000338824
6 *135:10 *163:22 0.00147695
7 *135:10 *163:26 0.00420357
8 *135:10 *165:18 0.000623302
9 *135:10 *170:10 0.0114119
10 *135:10 *172:16 0.00208394
11 *135:10 *179:20 0.00033771
12 *135:10 *179:22 2.09207e-05
13 *135:10 *209:11 0
*RES
1 *1834:X *135:8 44.815 
2 *135:8 *135:10 156.144 
3 *135:10 *1937:BEN[12] 46.1025 
*END

*D_NET *136 0.030831
*CONN
*I *1937:BEN[13] I *D CF_SRAM_1024x32
*I *1835:X O *D sky130_fd_sc_hd__clkbuf_4
*CAP
1 *1937:BEN[13] 0.000871684
2 *1835:X 0.00107582
3 *136:18 0.00425612
4 *136:16 0.00413548
5 *136:10 0.00502427
6 *136:8 0.00427322
7 *136:6 0.00107582
8 *136:10 *137:18 0.00324381
9 *136:10 *166:20 0.00231518
10 *136:16 *156:6 6.42118e-05
11 *136:18 *1937:DI[13] 0
12 *136:18 *156:16 0.000148201
13 *136:18 *203:20 0.000306292
14 *15:15 *136:6 1.23293e-05
15 *43:13 *136:10 0.00255581
16 *118:11 *136:10 0.000493756
17 *134:18 *136:18 0.000979033
*RES
1 *1835:X *136:6 36.0086 
2 *136:6 *136:8 15 
3 *136:8 *136:10 111.07 
4 *136:10 *136:16 38.7207 
5 *136:16 *136:18 64.9393 
6 *136:18 *1937:BEN[13] 31.3539 
*END

*D_NET *137 0.0374699
*CONN
*I *1937:BEN[14] I *D CF_SRAM_1024x32
*I *1836:X O *D sky130_fd_sc_hd__clkbuf_4
*CAP
1 *1937:BEN[14] 0.00157977
2 *1836:X 0.000117196
3 *137:18 0.00600702
4 *137:16 0.00545911
5 *137:10 0.00347037
6 *137:8 0.00255571
7 *137:10 *1916:A 7.79889e-05
8 *137:10 *171:8 8.47996e-05
9 *137:10 *204:19 0.000845857
10 *137:10 *206:19 0.00416953
11 *137:10 *208:11 0.00185008
12 *137:10 *209:11 0.000215098
13 *137:10 *211:11 0
14 *137:16 *162:8 0.000707167
15 *137:18 *166:20 0.000816053
16 data_o[12] *137:10 0
17 *1834:A *137:10 7.06486e-05
18 *1869:A *137:10 9.77988e-05
19 *1870:A *137:10 7.38265e-05
20 *16:13 *137:8 5.79559e-05
21 *43:13 *137:18 0.00597006
22 *136:10 *137:18 0.00324381
*RES
1 *1836:X *137:8 39.5743 
2 *137:8 *137:10 76.2079 
3 *137:10 *137:16 42.0557 
4 *137:16 *137:18 119.521 
5 *137:18 *1937:BEN[14] 39.4739 
*END

*D_NET *138 0.0369966
*CONN
*I *1937:BEN[15] I *D CF_SRAM_1024x32
*I *1837:X O *D sky130_fd_sc_hd__clkbuf_4
*CAP
1 *1937:BEN[15] 0.00216341
2 *1837:X 0.000367597
3 *138:20 0.00815902
4 *138:10 0.00927205
5 *138:8 0.00364405
6 *138:10 *196:10 0
7 *138:10 *205:11 0.00452336
8 *138:10 *210:11 0
9 *138:10 *210:19 0
10 *138:10 *211:11 0
11 *138:20 *167:10 0.000507111
12 *138:20 *171:16 0.00719489
13 *138:20 *172:16 1.58513e-05
14 *138:20 *173:16 0.000493558
15 *138:20 *179:10 0.000442206
16 data_o[5] *138:20 6.49157e-05
17 *6:13 *138:20 0
18 *7:13 *138:20 0
19 *16:13 *138:10 0
20 *71:13 *138:20 0.0001486
21 *80:12 *138:10 0
*RES
1 *1837:X *138:8 43.8621 
2 *138:8 *138:10 93.2868 
3 *138:10 *138:20 47.7496 
4 *138:20 *1937:BEN[15] 41.9718 
*END

*D_NET *139 0.0057939
*CONN
*I *1937:BEN[16] I *D CF_SRAM_1024x32
*I *1838:X O *D sky130_fd_sc_hd__buf_2
*CAP
1 *1937:BEN[16] 0.00213616
2 *1838:X 0.000553225
3 *139:17 0
4 *139:10 0.00268938
5 *139:10 *173:12 1.03203e-05
6 *139:10 *175:20 0
7 *139:10 *176:12 0.000118663
8 *139:10 *212:15 0.000232125
9 *18:15 *139:10 5.40241e-05
*RES
1 *1838:X *139:10 49.1236 
2 *139:10 *1937:BEN[16] 49.4479 
3 *1937:BEN[16] *139:17 0.203 
*END

*D_NET *140 0.00586235
*CONN
*I *1937:BEN[17] I *D CF_SRAM_1024x32
*I *1839:X O *D sky130_fd_sc_hd__clkbuf_2
*CAP
1 *1937:BEN[17] 0.00159467
2 *1839:X 0.000976631
3 *140:12 0.00180376
4 *140:6 0.00118572
5 *140:6 *214:7 0.000287441
6 *19:13 *140:6 1.41244e-05
*RES
1 *1839:X *140:6 36.485 
2 *140:6 *140:12 32.9621 
3 *140:12 *1937:BEN[17] 24.9193 
*END

*D_NET *141 0.0271695
*CONN
*I *1937:AD[1] I *D CF_SRAM_1024x32
*I *1840:X O *D sky130_fd_sc_hd__clkbuf_4
*CAP
1 *1937:AD[1] 0.00172693
2 *1840:X 0.00011292
3 *141:18 0.00429123
4 *141:16 0.00309672
5 *141:10 0.0015963
6 *141:8 0.00117679
7 *1937:AD[1] *1937:AD[2] 9.27046e-05
8 *141:10 *204:19 0.0026917
9 *141:10 *206:17 0.000366771
10 *141:10 *206:19 0.00132219
11 *141:16 *160:6 0.000118816
12 *141:18 *163:26 0.000627475
13 *141:18 *165:18 0.000661394
14 *141:18 *167:24 0.00194593
15 *141:18 *170:10 0
16 *141:18 *172:16 0.00066825
17 *141:18 *179:20 4.98146e-05
18 *141:18 *179:22 0.00299248
19 *141:18 *199:12 1.06693e-05
20 *141:18 *199:14 0.00173695
21 *1937:AD[0] *1937:AD[1] 1.73074e-05
22 *112:10 *141:18 0
23 *120:30 *141:18 0.00032576
24 *122:10 *141:8 5.01469e-05
25 *132:6 *1937:AD[1] 0.00115145
26 *135:10 *141:18 0.000338824
*RES
1 *1840:X *141:8 39.5743 
2 *141:8 *141:10 36.4157 
3 *141:10 *141:16 36.815 
4 *141:16 *141:18 85.0114 
5 *141:18 *1937:AD[1] 43.7048 
*END

*D_NET *142 0.00628448
*CONN
*I *1937:BEN[18] I *D CF_SRAM_1024x32
*I *1841:X O *D sky130_fd_sc_hd__clkbuf_2
*CAP
1 *1937:BEN[18] 0.00277249
2 *1841:X 0.000204934
3 *142:8 0.00297743
4 *1937:BEN[18] *1937:DI[18] 0
5 *1937:BEN[18] *213:17 0.000125234
6 data_o[17] *1937:BEN[18] 1.83327e-05
7 *20:13 *142:8 0.000186051
*RES
1 *1841:X *142:8 26.7286 
2 *142:8 *1937:BEN[18] 39.7093 
*END

*D_NET *143 0.00529152
*CONN
*I *1937:BEN[19] I *D CF_SRAM_1024x32
*I *1842:X O *D sky130_fd_sc_hd__clkbuf_2
*CAP
1 *1937:BEN[19] 0.00261678
2 *1842:X 0
3 *143:4 0.00261678
4 *1937:BEN[19] *1937:DI[19] 0
5 *21:15 *1937:BEN[19] 5.79559e-05
*RES
1 *1842:X *143:4 23 
2 *143:4 *1937:BEN[19] 37.3064 
*END

*D_NET *144 0.019497
*CONN
*I *1937:BEN[1] I *D CF_SRAM_1024x32
*I *1843:X O *D sky130_fd_sc_hd__buf_2
*CAP
1 *1937:BEN[1] 0.00155316
2 *1843:X 0.00168632
3 *144:20 0.00241228
4 *144:10 0.00413678
5 *144:8 0.00327766
6 *144:6 0.00168632
7 *1937:BEN[1] *152:36 0.00020277
8 *1937:BEN[1] *207:12 0.000552883
9 *1937:BEN[1] *228:9 0
10 *144:10 *161:12 0
11 *144:10 *216:31 0.00265572
12 *144:10 *228:15 0.000942971
13 *144:20 *152:36 1.11421e-05
14 *144:20 *198:18 0.000299163
15 *22:15 *144:6 3.42479e-05
16 *43:13 *144:10 0
17 *117:11 *144:20 4.55689e-05
*RES
1 *1843:X *144:6 42.2021 
2 *144:6 *144:8 15 
3 *144:8 *144:10 55.4314 
4 *144:10 *144:20 41.9832 
5 *144:20 *1937:BEN[1] 48.9714 
*END

*D_NET *145 0.00522095
*CONN
*I *1937:BEN[20] I *D CF_SRAM_1024x32
*I *1844:X O *D sky130_fd_sc_hd__clkbuf_2
*CAP
1 *1937:BEN[20] 0.00159367
2 *1844:X 0.000815714
3 *145:10 0.00240938
4 *1937:BEN[20] *1937:DI[20] 0
5 *1937:BEN[20] *180:6 0.000388065
6 *23:13 *145:10 1.41244e-05
*RES
1 *1844:X *145:10 48.7507 
2 *145:10 *1937:BEN[20] 44.0207 
*END

*D_NET *146 0.00603867
*CONN
*I *1937:BEN[21] I *D CF_SRAM_1024x32
*I *1845:X O *D sky130_fd_sc_hd__clkbuf_2
*CAP
1 *1937:BEN[21] 0.00185501
2 *1845:X 0.000673368
3 *146:8 0.00252838
4 *1937:BEN[21] *219:22 0.000784131
5 *24:21 *146:8 0.000197774
*RES
1 *1845:X *146:8 47.1971 
2 *146:8 *1937:BEN[21] 48.8886 
*END

*D_NET *147 0.00615648
*CONN
*I *1937:BEN[22] I *D CF_SRAM_1024x32
*I *1846:X O *D sky130_fd_sc_hd__clkbuf_2
*CAP
1 *1937:BEN[22] 7.72958e-05
2 *1846:X 0.000689718
3 *147:14 0.00238146
4 *147:8 0.00299388
5 *25:15 *147:8 1.41244e-05
*RES
1 *1846:X *147:8 47.1971 
2 *147:8 *147:14 49.6136 
3 *147:14 *1937:BEN[22] 1.63643 
*END

*D_NET *148 0.00669162
*CONN
*I *1937:BEN[23] I *D CF_SRAM_1024x32
*I *1847:X O *D sky130_fd_sc_hd__clkbuf_2
*CAP
1 *1937:BEN[23] 0.00224366
2 *1847:X 0.000293863
3 *148:12 0.00283039
4 *148:8 0.00088059
5 *1937:BEN[23] *184:8 0.000274012
6 *148:12 *149:12 0.000111148
7 data_o[23] *148:12 0
8 *26:15 *148:8 5.79559e-05
*RES
1 *1847:X *148:8 41.9564 
2 *148:8 *148:12 26.4136 
3 *148:12 *1937:BEN[23] 33.2671 
*END

*D_NET *149 0.00748415
*CONN
*I *1937:BEN[24] I *D CF_SRAM_1024x32
*I *1848:X O *D sky130_fd_sc_hd__clkbuf_2
*CAP
1 *1937:BEN[24] 0.00240028
2 *1848:X 0.000225645
3 *149:12 0.00307152
4 *149:8 0.000896884
5 *1937:BEN[24] *1931:A 0.00033934
6 *149:12 *150:12 0.000425215
7 *27:13 *149:8 1.41244e-05
8 *29:13 *149:12 0
9 *148:12 *149:12 0.000111148
*RES
1 *1848:X *149:8 41.0036 
2 *149:8 *149:12 29.2307 
3 *149:12 *1937:BEN[24] 34.1993 
*END

*D_NET *150 0.00770856
*CONN
*I *1937:BEN[25] I *D CF_SRAM_1024x32
*I *1849:X O *D sky130_fd_sc_hd__buf_2
*CAP
1 *1937:BEN[25] 0.00235411
2 *1849:X 0.000258984
3 *150:12 0.00311127
4 *150:8 0.00101614
5 *1937:BEN[25] *224:9 0
6 *150:8 *222:11 1.82631e-05
7 *150:12 *151:12 0.000312987
8 *28:15 *150:8 5.68958e-05
9 *30:13 *1937:BEN[25] 5.12254e-05
10 *30:13 *150:12 0.000103456
11 *149:12 *150:12 0.000425215
*RES
1 *1849:X *150:8 41.48 
2 *150:8 *150:12 32.0479 
3 *150:12 *1937:BEN[25] 33.7021 
*END

*D_NET *151 0.00804614
*CONN
*I *1937:BEN[26] I *D CF_SRAM_1024x32
*I *1850:X O *D sky130_fd_sc_hd__buf_2
*CAP
1 *1937:BEN[26] 0.00241272
2 *1850:X 0.000142705
3 *151:12 0.00321611
4 *151:8 0.000946091
5 *151:12 *187:12 0.000836344
6 *151:12 *189:12 1.00084e-05
7 *151:12 *225:17 0.000114764
8 *29:13 *151:8 5.44109e-05
9 *150:12 *151:12 0.000312987
*RES
1 *1850:X *151:8 40.5271 
2 *151:8 *151:12 35.2171 
3 *151:12 *1937:BEN[26] 34.4479 
*END

*D_NET *152 0.0282001
*CONN
*I *1937:AD[2] I *D CF_SRAM_1024x32
*I *1851:X O *D sky130_fd_sc_hd__clkbuf_4
*CAP
1 *1937:AD[2] 0.000322265
2 *1851:X 0.00174678
3 *152:46 0.00202709
4 *152:42 0.0018284
5 *152:36 0.00125883
6 *152:22 0.00171092
7 *152:12 0.00167745
8 *152:6 0.00284857
9 *152:6 *1937:DI[8] 0.00215841
10 *152:12 *159:10 0.00033707
11 *152:12 *198:18 0.000108079
12 *152:12 *228:21 0
13 *152:22 *1937:DI[5] 9.41704e-05
14 *152:22 *198:18 3.3746e-05
15 *152:36 *159:10 0.00104589
16 *152:36 *194:10 0.000439295
17 *152:36 *198:18 0.001134
18 *152:36 *203:20 0.000113532
19 *152:36 *207:12 0.00172567
20 *152:36 *216:19 0.00173796
21 *152:36 *218:10 3.81486e-05
22 *152:42 *216:9 6.17437e-06
23 *152:46 *174:10 0.00193969
24 *152:46 *203:20 0.000396856
25 *1937:AD[0] *1937:AD[2] 0
26 *1937:AD[1] *1937:AD[2] 9.27046e-05
27 *1937:BEN[1] *152:36 0.00020277
28 *119:19 *152:22 0.000636776
29 *131:8 *1937:AD[2] 0.0010619
30 *132:6 *1937:AD[2] 0.00115145
31 *134:18 *152:12 0.000314374
32 *144:20 *152:36 1.11421e-05
*RES
1 *1851:X *152:6 47.4429 
2 *152:6 *152:12 40.2404 
3 *152:12 *152:22 42.4804 
4 *152:22 *152:36 46.4621 
5 *152:36 *152:42 31.5743 
6 *152:42 *152:46 46.4857 
7 *152:46 *1937:AD[2] 15.9862 
*END

*D_NET *153 0.00916858
*CONN
*I *1937:BEN[27] I *D CF_SRAM_1024x32
*I *1852:X O *D sky130_fd_sc_hd__buf_2
*CAP
1 *1937:BEN[27] 0.00257632
2 *1852:X 5.00163e-05
3 *153:12 0.00334681
4 *153:8 0.000820507
5 *1937:BEN[27] *227:15 0.000181805
6 *153:12 *154:12 0.00011153
7 *153:12 *187:12 9.21996e-05
8 *153:12 *188:10 0.00105461
9 *153:12 *189:12 0.000141482
10 *153:12 *225:17 0.0007933
11 *63:13 *153:12 0
*RES
1 *1852:X *153:8 38.6214 
2 *153:8 *153:12 37.6821 
3 *153:12 *1937:BEN[27] 36.3536 
*END

*D_NET *154 0.00902841
*CONN
*I *1937:BEN[28] I *D CF_SRAM_1024x32
*I *1853:X O *D sky130_fd_sc_hd__buf_2
*CAP
1 *1937:BEN[28] 0.00263583
2 *1853:X 7.95916e-05
3 *154:12 0.00373423
4 *154:8 0.00117799
5 *1937:BEN[28] *158:6 0.000182506
6 *154:12 *188:10 0.00022481
7 data_o[28] *154:12 0.000154677
8 data_o[30] *154:12 5.40266e-05
9 *31:15 *154:8 3.71369e-05
10 *32:15 *154:12 6.54744e-05
11 *34:13 *154:12 9.2511e-05
12 *35:13 *1937:BEN[28] 0.000103469
13 *35:13 *154:12 0.000107267
14 *64:13 *154:12 8.05795e-05
15 *65:13 *154:12 9.17992e-05
16 *67:15 *154:12 9.4987e-05
17 *68:15 *154:12 0
18 *97:12 *154:12 0
19 *153:12 *154:12 0.00011153
*RES
1 *1853:X *154:8 39.0979 
2 *154:8 *154:12 40.4993 
3 *154:12 *1937:BEN[28] 37.7829 
*END

*D_NET *155 0.00967935
*CONN
*I *1937:BEN[29] I *D CF_SRAM_1024x32
*I *1854:X O *D sky130_fd_sc_hd__buf_2
*CAP
1 *1937:BEN[29] 0.000658042
2 *1854:X 0.00168071
3 *155:10 0.00223952
4 *155:6 0.00326219
5 *155:6 *225:11 0.00181449
6 *155:10 *157:10 0
7 *32:15 *155:6 2.43944e-05
*RES
1 *1854:X *155:6 48.3957 
2 *155:6 *155:10 43.3164 
3 *155:10 *1937:BEN[29] 28.3607 
*END

*D_NET *156 0.0166184
*CONN
*I *1937:BEN[2] I *D CF_SRAM_1024x32
*I *1855:X O *D sky130_fd_sc_hd__buf_2
*CAP
1 *1937:BEN[2] 0.00107502
2 *1855:X 0.00206604
3 *156:16 0.00256141
4 *156:8 0.00148639
5 *156:6 0.00206604
6 *1937:BEN[2] *174:10 0.000740157
7 *1937:BEN[2] *194:10 2.06613e-05
8 *1937:BEN[2] *216:19 0.000690107
9 *156:16 *174:10 0.00205405
10 *156:16 *194:10 0.000174768
11 *156:16 *203:20 0.000332463
12 *156:16 *228:21 0.0018402
13 *33:13 *156:6 3.42479e-05
14 *119:27 *156:16 0.00100156
15 *134:18 *156:16 0.000262852
16 *136:16 *156:6 6.42118e-05
17 *136:18 *156:16 0.000148201
*RES
1 *1855:X *156:6 46.0136 
2 *156:6 *156:8 15 
3 *156:8 *156:16 49.2482 
4 *156:16 *1937:BEN[2] 40.7686 
*END

*D_NET *157 0.00990927
*CONN
*I *1937:BEN[30] I *D CF_SRAM_1024x32
*I *1856:X O *D sky130_fd_sc_hd__buf_2
*CAP
1 *1937:BEN[30] 0.00075117
2 *1856:X 0.00185718
3 *157:10 0.00218167
4 *157:6 0.00328768
5 *157:10 *158:10 0.00177469
6 *34:13 *157:6 5.68958e-05
7 *155:10 *157:10 0
*RES
1 *1856:X *157:6 45.5371 
2 *157:6 *157:10 47.19 
3 *157:10 *1937:BEN[30] 30.1836 
*END

*D_NET *158 0.0111408
*CONN
*I *1937:BEN[31] I *D CF_SRAM_1024x32
*I *1857:X O *D sky130_fd_sc_hd__buf_2
*CAP
1 *1937:BEN[31] 0.000907743
2 *1857:X 0.00173998
3 *158:10 0.00283349
4 *158:6 0.00366573
5 *1937:BEN[28] *158:6 0.000182506
6 *35:13 *158:6 3.66555e-05
7 *157:10 *158:10 0.00177469
*RES
1 *1857:X *158:6 45.0607 
2 *158:6 *158:10 48.9507 
3 *158:10 *1937:BEN[31] 31.7371 
*END

*D_NET *159 0.0127827
*CONN
*I *1937:BEN[3] I *D CF_SRAM_1024x32
*I *1858:X O *D sky130_fd_sc_hd__buf_2
*CAP
1 *1937:BEN[3] 0.0007624
2 *1858:X 0.0022713
3 *159:10 0.0016365
4 *159:8 0.000874105
5 *159:6 0.0022713
6 *159:10 *194:10 0.00243694
7 *159:10 *198:18 0.000895366
8 *159:10 *228:21 0.00010858
9 *121:22 *159:6 0.000143259
10 *152:12 *159:10 0.00033707
11 *152:36 *159:10 0.00104589
*RES
1 *1858:X *159:6 47.4429 
2 *159:6 *159:8 15 
3 *159:8 *159:10 35.3593 
4 *159:10 *1937:BEN[3] 29.1375 
*END

*D_NET *160 0.00886679
*CONN
*I *1937:BEN[4] I *D CF_SRAM_1024x32
*I *1859:X O *D sky130_fd_sc_hd__buf_2
*CAP
1 *1937:BEN[4] 0.0012401
2 *1859:X 0.00151134
3 *160:12 0.00158569
4 *160:6 0.00185693
5 *37:13 *160:6 3.05299e-05
6 *116:11 *160:12 0.000940404
7 *118:11 *1937:BEN[4] 0.000644834
8 *134:10 *160:12 0.000938141
9 *141:16 *160:6 0.000118816
*RES
1 *1859:X *160:6 38.8671 
2 *160:6 *160:12 42.8221 
3 *160:12 *1937:BEN[4] 22.6925 
*END

*D_NET *161 0.00780449
*CONN
*I *1937:BEN[5] I *D CF_SRAM_1024x32
*I *1860:X O *D sky130_fd_sc_hd__clkbuf_2
*CAP
1 *1937:BEN[5] 0.0015132
2 *1860:X 0.00161207
3 *161:12 0.00179685
4 *161:6 0.00189573
5 *1937:BEN[5] *195:6 3.2807e-05
6 *161:12 *166:12 8.50457e-05
7 *161:12 *197:14 3.53585e-05
8 *161:12 *216:31 6.91399e-05
9 *38:15 *161:6 1.23293e-05
10 *116:11 *161:12 6.12165e-05
11 *117:11 *161:12 0.00034967
12 *118:11 *161:6 0.000341076
13 *144:10 *161:12 0
*RES
1 *1860:X *161:6 40.2964 
2 *161:6 *161:12 36.8357 
3 *161:12 *1937:BEN[5] 21.4289 
*END

*D_NET *162 0.0117895
*CONN
*I *1937:BEN[6] I *D CF_SRAM_1024x32
*I *1861:X O *D sky130_fd_sc_hd__buf_2
*CAP
1 *1937:BEN[6] 0.00207104
2 *1861:X 0.000661563
3 *162:12 0.00369599
4 *162:8 0.00228652
5 *1937:BEN[6] *194:6 9.47335e-05
6 *39:15 *162:8 4.96303e-05
7 *120:22 *162:12 0.00222291
8 *137:16 *162:8 0.000707167
*RES
1 *1861:X *162:8 48.6264 
2 *162:8 *162:12 44.725 
3 *162:12 *1937:BEN[6] 28.1196 
*END

*D_NET *163 0.0216982
*CONN
*I *1937:AD[3] I *D CF_SRAM_1024x32
*I *1862:X O *D sky130_fd_sc_hd__clkbuf_4
*CAP
1 *1937:AD[3] 0.00157407
2 *1862:X 0.000648086
3 *163:26 0.00287803
4 *163:24 0.00130396
5 *163:22 0.00116246
6 *163:8 0.00181055
7 *163:22 *165:18 0.00147917
8 *163:22 *172:16 0.000615533
9 *163:26 *172:16 0.000322093
10 *163:26 *179:22 0.00293425
11 *1937:AD[9] *1937:AD[3] 0
12 *1937:ScanInCC *1937:AD[3] 0.000661988
13 *113:17 *1937:AD[3] 0
14 *135:10 *163:22 0.00147695
15 *135:10 *163:26 0.00420357
16 *141:18 *163:26 0.000627475
*RES
1 *1862:X *163:8 46.2443 
2 *163:8 *163:22 45.4821 
3 *163:22 *163:24 8 
4 *163:24 *163:26 55.9596 
5 *163:26 *1937:AD[3] 44.2848 
*END

*D_NET *164 0.0157726
*CONN
*I *1937:BEN[7] I *D CF_SRAM_1024x32
*I *1863:X O *D sky130_fd_sc_hd__buf_2
*CAP
1 *1937:BEN[7] 0.00296243
2 *1863:X 0.000219406
3 *164:27 0
4 *164:22 0.00326335
5 *164:18 0.00168581
6 *164:10 0.0016043
7 *164:10 *191:16 0.000167818
8 *164:10 *201:12 0.000389648
9 *164:10 *204:11 1.00084e-05
10 *164:18 *191:12 0.00125035
11 *164:18 *191:16 0.0010148
12 *164:18 *201:12 0.00148397
13 *164:18 *211:11 0
14 *164:22 *191:12 4.12501e-05
15 *164:22 *211:11 0.000297907
16 data_o[6] *164:18 0.00012827
17 *5:13 *164:18 4.63132e-05
18 *36:15 *164:22 0.000130212
19 *37:13 *164:18 5.44807e-05
20 *66:15 *1937:BEN[7] 9.61399e-05
21 *69:13 *164:18 1.40157e-05
22 *69:13 *164:22 0.000115673
23 *70:15 *164:18 0.000125441
24 *121:22 *164:22 0.000671049
*RES
1 *1863:X *164:10 43.8725 
2 *164:10 *164:18 39.3364 
3 *164:18 *164:22 26.2375 
4 *164:22 *1937:BEN[7] 37.7829 
5 *1937:BEN[7] *164:27 0.184545 
*END

*D_NET *165 0.0190849
*CONN
*I *1937:BEN[8] I *D CF_SRAM_1024x32
*I *1864:X O *D sky130_fd_sc_hd__buf_2
*CAP
1 *1937:BEN[8] 0.00213451
2 *1864:X 0.000415671
3 *165:18 0.00345335
4 *165:16 0.00176147
5 *165:10 0.00128866
6 *165:8 0.0012617
7 *165:10 *167:10 0.00178302
8 *165:10 *209:11 0.00262229
9 *165:18 *172:16 0.000373113
10 *165:18 *179:20 0.000225265
11 *165:18 *199:14 0.000560704
12 *41:15 *165:8 2.97709e-05
13 *124:10 *165:10 0.000411455
14 *135:10 *165:18 0.000623302
15 *141:18 *165:18 0.000661394
16 *163:22 *165:18 0.00147917
*RES
1 *1864:X *165:8 42.4329 
2 *165:8 *165:10 35.0071 
3 *165:10 *165:16 34.4329 
4 *165:16 *165:18 39.585 
5 *165:18 *1937:BEN[8] 45.0668 
*END

*D_NET *166 0.0219088
*CONN
*I *1937:BEN[9] I *D CF_SRAM_1024x32
*I *1865:X O *D sky130_fd_sc_hd__buf_2
*CAP
1 *1937:BEN[9] 0.00160369
2 *1865:X 0.00139956
3 *166:20 0.00456231
4 *166:18 0.00340112
5 *166:12 0.00244585
6 *166:10 0.00200334
7 *166:8 0.00139956
8 *166:12 *197:14 0.000291443
9 *166:12 *228:15 0.00101079
10 *42:13 *166:8 4.89198e-05
11 *116:11 *166:12 0.000231257
12 *117:11 *166:12 0.000294636
13 *134:10 *166:12 0
14 *136:10 *166:20 0.00231518
15 *137:18 *166:20 0.000816053
16 *161:12 *166:12 8.50457e-05
*RES
1 *1865:X *166:8 41.27 
2 *166:8 *166:10 15 
3 *166:10 *166:12 46.6279 
4 *166:12 *166:18 34.4329 
5 *166:18 *166:20 52.6143 
6 *166:20 *1937:BEN[9] 38.4175 
*END

*D_NET *167 0.0263036
*CONN
*I *1937:DI[0] I *D CF_SRAM_1024x32
*I *1866:X O *D sky130_fd_sc_hd__buf_2
*CAP
1 *1937:DI[0] 0.00151565
2 *1866:X 0.000398676
3 *167:24 0.00275496
4 *167:16 0.00173165
5 *167:10 0.00225837
6 *167:8 0.0021647
7 *1937:DI[0] *204:7 0
8 *167:10 *171:16 0.000160281
9 *167:10 *179:10 0.0027368
10 *167:10 *209:11 0.00060789
11 *167:24 *172:16 0.000207354
12 *1937:ScanInDL *1937:DI[0] 0.00123229
13 *44:13 *167:8 5.68958e-05
14 *120:30 *167:24 0.000521551
15 *124:10 *167:10 0.00572045
16 *138:20 *167:10 0.000507111
17 *141:18 *167:24 0.00194593
18 *165:10 *167:10 0.00178302
*RES
1 *1866:X *167:8 42.9093 
2 *167:8 *167:10 76.2079 
3 *167:10 *167:16 34.9093 
4 *167:16 *167:24 44.9114 
5 *167:24 *1937:DI[0] 28.4925 
*END

*D_NET *168 0.0294162
*CONN
*I *1937:DI[10] I *D CF_SRAM_1024x32
*I *1867:X O *D sky130_fd_sc_hd__buf_2
*CAP
1 *1937:DI[10] 0.00163433
2 *1867:X 0.000210294
3 *168:12 0.00163433
4 *168:10 0.00235483
5 *168:8 0.00256512
6 *1937:DI[10] *205:7 0.00349685
7 *168:10 *210:11 0.008769
8 *168:10 *211:11 0.00851047
9 *1:15 *1937:DI[10] 0.000192772
10 *45:13 *168:8 4.81857e-05
*RES
1 *1867:X *168:8 40.5271 
2 *168:8 *168:10 114.591 
3 *168:10 *168:12 15 
4 *168:12 *1937:DI[10] 41.2318 
*END

*D_NET *169 0.0342116
*CONN
*I *1937:DI[11] I *D CF_SRAM_1024x32
*I *1868:X O *D sky130_fd_sc_hd__buf_2
*CAP
1 *1937:DI[11] 0.00189119
2 *1868:X 0.000568682
3 *169:10 0.00512678
4 *169:8 0.00380426
5 *1937:DI[11] *206:7 0.00143614
6 *169:10 *170:10 0.0101343
7 *169:10 *173:16 0.00182545
8 *169:10 *209:11 0
9 *46:13 *169:8 5.68958e-05
10 *112:10 *169:10 0.00918093
11 *133:10 *169:10 0.000186925
*RES
1 *1868:X *169:8 44.815 
2 *169:8 *169:10 135.368 
3 *169:10 *1937:DI[11] 45.8539 
*END

*D_NET *170 0.037244
*CONN
*I *1937:DI[12] I *D CF_SRAM_1024x32
*I *1869:X O *D sky130_fd_sc_hd__clkbuf_4
*CAP
1 *1937:DI[12] 0.0017254
2 *1869:X 0.000547354
3 *170:10 0.00547536
4 *170:8 0.00429731
5 *1937:DI[12] *208:9 0.00147121
6 *170:10 *172:16 0.00185755
7 *170:10 *209:11 0
8 *112:10 *170:10 0.000323645
9 *135:10 *170:10 0.0114119
10 *141:18 *170:10 0
11 *169:10 *170:10 0.0101343
*RES
1 *1869:X *170:8 44.3386 
2 *170:8 *170:10 155.088 
3 *170:10 *1937:DI[12] 45.3982 
*END

*D_NET *171 0.037378
*CONN
*I *1937:DI[13] I *D CF_SRAM_1024x32
*I *1870:X O *D sky130_fd_sc_hd__clkbuf_4
*CAP
1 *1937:DI[13] 0.00201654
2 *1870:X 0.000280676
3 *171:16 0.00651585
4 *171:8 0.00477998
5 *1937:DI[13] *209:9 0.00059654
6 *171:8 *211:11 0
7 *171:16 *173:16 0.0128456
8 data_o[12] *171:8 5.58873e-06
9 *1870:A *171:8 0.000122969
10 *15:15 *171:8 0
11 *124:10 *171:16 0.00128423
12 *133:10 *171:16 0.00149007
13 *136:18 *1937:DI[13] 0
14 *137:10 *171:8 8.47996e-05
15 *138:20 *171:16 0.00719489
16 *167:10 *171:16 0.000160281
*RES
1 *1870:X *171:8 43.9554 
2 *171:8 *171:16 47.0968 
3 *171:16 *1937:DI[13] 49.075 
*END

*D_NET *172 0.0417556
*CONN
*I *1937:DI[14] I *D CF_SRAM_1024x32
*I *1871:X O *D sky130_fd_sc_hd__clkbuf_4
*CAP
1 *1937:DI[14] 0.00155038
2 *1871:X 0.000744788
3 *172:16 0.0084671
4 *172:12 0.00766151
5 *1937:DI[14] *173:28 0.00147762
6 *1937:DI[14] *210:7 0.000600997
7 *172:12 *211:11 0
8 *172:16 *173:16 0.014835
9 *172:16 *199:12 0.000119043
10 *172:16 *199:14 0.000120226
11 *1837:A *172:12 6.41968e-06
12 *49:13 *172:12 2.87664e-05
13 *50:17 *172:12 0
14 *135:10 *172:16 0.00208394
15 *138:20 *172:16 1.58513e-05
16 *141:18 *172:16 0.00066825
17 *163:22 *172:16 0.000615533
18 *163:26 *172:16 0.000322093
19 *165:18 *172:16 0.000373113
20 *167:24 *172:16 0.000207354
21 *170:10 *172:16 0.00185755
*RES
1 *1871:X *172:12 47.9743 
2 *172:12 *172:16 42.9627 
3 *172:16 *1937:DI[14] 48.048 
*END

*D_NET *173 0.0469536
*CONN
*I *1937:DI[15] I *D CF_SRAM_1024x32
*I *1872:X O *D sky130_fd_sc_hd__clkbuf_4
*CAP
1 *1937:DI[15] 0.000542478
2 *1872:X 0.000626678
3 *173:28 0.0021442
4 *173:16 0.00535239
5 *173:12 0.00437735
6 *1937:DI[15] *211:7 0.000700013
7 *173:12 *175:20 4.89546e-05
8 *1937:DI[14] *173:28 0.00147762
9 *112:10 *173:16 0.00167397
10 *138:20 *173:16 0.000493558
11 *139:10 *173:12 1.03203e-05
12 *169:10 *173:16 0.00182545
13 *171:16 *173:16 0.0128456
14 *172:16 *173:16 0.014835
*RES
1 *1872:X *173:12 47.8025 
2 *173:12 *173:16 44.3589 
3 *173:16 *173:28 47.5138 
4 *173:28 *1937:DI[15] 14.2618 
*END

*D_NET *174 0.0216618
*CONN
*I *1937:AD[4] I *D CF_SRAM_1024x32
*I *1873:X O *D sky130_fd_sc_hd__buf_2
*CAP
1 *1937:AD[4] 0.000498147
2 *1873:X 0.00216122
3 *174:10 0.003257
4 *174:8 0.00275885
5 *174:6 0.00216122
6 *1937:AD[4] *1937:AD[5] 0.00130015
7 *174:10 *195:12 0.0010563
8 *174:10 *203:20 0.000671435
9 *174:10 *207:12 0
10 *174:10 *216:19 0.000278262
11 *174:10 *218:10 0.00224631
12 *1937:BEN[2] *174:10 0.000740157
13 *5:13 *174:6 4.96207e-05
14 *119:33 *174:10 0.000489385
15 *152:46 *174:10 0.00193969
16 *156:16 *174:10 0.00205405
*RES
1 *1873:X *174:6 45.5371 
2 *174:6 *174:8 15 
3 *174:8 *174:10 82.8986 
4 *174:10 *1937:AD[4] 29.9402 
*END

*D_NET *175 0.00686023
*CONN
*I *1937:DI[16] I *D CF_SRAM_1024x32
*I *1874:X O *D sky130_fd_sc_hd__clkbuf_2
*CAP
1 *1937:DI[16] 0.0010632
2 *1874:X 0.000327477
3 *175:20 0.0027311
4 *175:10 0.00199538
5 *1937:DI[16] *212:9 0.00027649
6 *175:20 *234:DIODE 0.000146822
7 *175:20 *210:19 4.21048e-05
8 *175:20 *211:11 0
9 data_o[14] *175:20 1.12863e-05
10 data_o[15] *175:20 0.00012827
11 *1837:A *175:20 8.91546e-05
12 *139:10 *175:20 0
13 *173:12 *175:20 4.89546e-05
*RES
1 *1874:X *175:10 43.8725 
2 *175:10 *175:20 43.13 
3 *175:20 *1937:DI[16] 19.3575 
*END

*D_NET *176 0.00718814
*CONN
*I *1937:DI[17] I *D CF_SRAM_1024x32
*I *1875:X O *D sky130_fd_sc_hd__clkbuf_2
*CAP
1 *1937:DI[17] 0.00217715
2 *1875:X 0.000237881
3 *176:12 0.00260277
4 *176:8 0.000663498
5 *1937:DI[17] *213:11 8.88552e-05
6 *176:12 *212:15 0.000487407
7 *176:12 *213:17 0.000185573
8 *176:12 *214:13 2.67179e-05
9 *1937:WLBI *1937:DI[17] 0
10 *1937:CLKin *1937:DI[17] 0.000541678
11 *52:13 *176:8 5.79559e-05
12 *139:10 *176:12 0.000118663
*RES
1 *1875:X *176:8 41.0036 
2 *176:8 *176:12 26.4136 
3 *176:12 *1937:DI[17] 34.8207 
*END

*D_NET *177 0.00607946
*CONN
*I *1937:DI[18] I *D CF_SRAM_1024x32
*I *1876:X O *D sky130_fd_sc_hd__clkbuf_2
*CAP
1 *1937:DI[18] 0.00133412
2 *1876:X 0.000934049
3 *177:12 0.00188531
4 *177:6 0.00148523
5 *1937:DI[18] *214:7 0
6 *177:6 *215:9 0.000420004
7 *1937:BEN[18] *1937:DI[18] 0
8 *53:13 *177:6 2.07484e-05
*RES
1 *1876:X *177:6 36.485 
2 *177:6 *177:12 37.8921 
3 *177:12 *1937:DI[18] 25.0229 
*END

*D_NET *178 0.00521517
*CONN
*I *1937:DI[19] I *D CF_SRAM_1024x32
*I *1877:X O *D sky130_fd_sc_hd__clkbuf_2
*CAP
1 *1937:DI[19] 0.00133314
2 *1877:X 0.000817769
3 *178:12 0.00173894
4 *178:6 0.00122356
5 *1937:DI[19] *215:9 0
6 *1937:BEN[19] *1937:DI[19] 0
7 *54:13 *178:6 0.000101762
*RES
1 *1877:X *178:6 36.9614 
2 *178:6 *178:12 35.7793 
3 *178:12 *1937:DI[19] 25.0021 
*END

*D_NET *179 0.0216681
*CONN
*I *1937:DI[1] I *D CF_SRAM_1024x32
*I *1878:X O *D sky130_fd_sc_hd__buf_2
*CAP
1 *1937:DI[1] 0.00185703
2 *1878:X 0.000387543
3 *179:22 0.00272917
4 *179:20 0.00136373
5 *179:10 0.00137895
6 *179:8 0.0012749
7 *1937:DI[1] *216:9 0
8 *179:10 *209:11 0.00273457
9 *55:13 *179:8 3.42479e-05
10 *117:15 *179:20 0.000168472
11 *135:10 *179:20 0.00033771
12 *135:10 *179:22 2.09207e-05
13 *138:20 *179:10 0.000442206
14 *141:18 *179:20 4.98146e-05
15 *141:18 *179:22 0.00299248
16 *163:26 *179:22 0.00293425
17 *165:18 *179:20 0.000225265
18 *167:10 *179:10 0.0027368
*RES
1 *1878:X *179:8 42.4329 
2 *179:8 *179:10 36.7679 
3 *179:10 *179:20 39.1246 
4 *179:20 *179:22 39.7611 
5 *179:22 *1937:DI[1] 45.0254 
*END

*D_NET *180 0.00557349
*CONN
*I *1937:DI[20] I *D CF_SRAM_1024x32
*I *1879:X O *D sky130_fd_sc_hd__clkbuf_2
*CAP
1 *1937:DI[20] 0.00140336
2 *1879:X 0.00100194
3 *180:12 0.00151276
4 *180:6 0.00111135
5 *180:12 *217:11 0.000141888
6 *1937:BEN[20] *1937:DI[20] 0
7 *1937:BEN[20] *180:6 0.000388065
8 *56:13 *180:6 1.41244e-05
*RES
1 *1879:X *180:6 36.485 
2 *180:6 *180:12 31.9057 
3 *180:12 *1937:DI[20] 25.3336 
*END

*D_NET *181 0.00554021
*CONN
*I *1937:DI[21] I *D CF_SRAM_1024x32
*I *1880:X O *D sky130_fd_sc_hd__clkbuf_2
*CAP
1 *1937:DI[21] 0.00274146
2 *1880:X 0
3 *181:4 0.00274146
4 *1937:DI[21] *219:6 0
5 *1937:DI[21] *219:18 0
6 *57:13 *1937:DI[21] 5.72975e-05
*RES
1 *1880:X *181:4 23 
2 *181:4 *1937:DI[21] 37.5964 
*END

*D_NET *182 0.00641083
*CONN
*I *1937:DI[22] I *D CF_SRAM_1024x32
*I *1881:X O *D sky130_fd_sc_hd__clkbuf_2
*CAP
1 *1937:DI[22] 0.00207538
2 *1881:X 0
3 *182:4 0.00207538
4 *1937:DI[22] *220:11 0.00222785
5 *58:13 *1937:DI[22] 3.22051e-05
*RES
1 *1881:X *182:4 23 
2 *182:4 *1937:DI[22] 37.2857 
*END

*D_NET *183 0.0059721
*CONN
*I *1937:DI[23] I *D CF_SRAM_1024x32
*I *1882:X O *D sky130_fd_sc_hd__clkbuf_2
*CAP
1 *1937:DI[23] 0.00122988
2 *1882:X 0.000857547
3 *183:10 0.00208743
4 *1937:DI[23] *221:11 0.00178312
5 *59:13 *183:10 1.41244e-05
*RES
1 *1882:X *183:10 49.8071 
2 *183:10 *1937:DI[23] 43.6064 
*END

*D_NET *184 0.00628965
*CONN
*I *1937:DI[24] I *D CF_SRAM_1024x32
*I *1883:X O *D sky130_fd_sc_hd__clkbuf_2
*CAP
1 *1937:DI[24] 0.00158852
2 *1883:X 0.000419681
3 *184:8 0.0020082
4 *1937:DI[24] *222:11 0.00189748
5 *1937:BEN[23] *184:8 0.000274012
6 *60:13 *184:8 0.000101762
*RES
1 *1883:X *184:8 47.6736 
2 *184:8 *1937:DI[24] 49.7586 
*END

*D_NET *185 0.017023
*CONN
*I *1937:AD[5] I *D CF_SRAM_1024x32
*I *1884:X O *D sky130_fd_sc_hd__buf_2
*CAP
1 *1937:AD[5] 0.00203401
2 *1884:X 0.000105933
3 *185:12 0.00203401
4 *185:10 0.00218227
5 *185:8 0.00228821
6 *1937:AD[5] *231:DIODE 2.64616e-05
7 *1937:AD[5] *1916:A 0.000100069
8 *1937:AD[5] *1937:AD[6] 0
9 *185:10 *201:10 0.000537787
10 *185:10 *201:12 0.00224387
11 *185:10 *204:11 9.94501e-05
12 *185:10 *211:11 0.00142116
13 data_o[10] *185:10 5.71645e-05
14 data_o[11] *185:10 5.78648e-05
15 data_o[8] *185:10 0.000180939
16 data_o[9] *185:10 5.78648e-05
17 *1937:AD[4] *1937:AD[5] 0.00130015
18 *7:13 *185:10 0.000183572
19 *9:13 *185:10 0.000183572
20 *10:13 *185:10 0.000183572
21 *12:13 *185:10 0.00018293
22 *39:15 *185:10 0.000154847
23 *40:15 *185:10 0.000130212
24 *42:13 *185:10 0.000196717
25 *45:13 *185:10 0.000206727
26 *46:13 *185:10 0.000179769
27 *71:13 *185:10 0.000148281
28 *72:13 *185:10 0.00018293
29 *73:13 *185:10 0.00018293
30 *74:13 *185:10 0.000179769
*RES
1 *1884:X *185:8 39.0979 
2 *185:8 *185:10 69.5171 
3 *185:10 *185:12 15 
4 *185:12 *1937:AD[5] 38.3473 
*END

*D_NET *186 0.0060613
*CONN
*I *1937:DI[25] I *D CF_SRAM_1024x32
*I *1885:X O *D sky130_fd_sc_hd__clkbuf_2
*CAP
1 *1937:DI[25] 0.00139797
2 *1885:X 0.000715941
3 *186:12 0.00180694
4 *186:8 0.00112491
5 *1937:DI[25] *223:11 0.000661793
6 *186:12 *223:11 0.000339617
7 *61:15 *186:8 1.41244e-05
*RES
1 *1885:X *186:8 47.1971 
2 *186:8 *186:12 23.2443 
3 *186:12 *1937:DI[25] 28.6479 
*END

*D_NET *187 0.00726502
*CONN
*I *1937:DI[26] I *D CF_SRAM_1024x32
*I *1886:X O *D sky130_fd_sc_hd__clkbuf_2
*CAP
1 *1937:DI[26] 0.00254381
2 *1886:X 0.000153095
3 *187:12 0.00298381
4 *187:8 0.000593092
5 *187:12 *225:17 3.04568e-05
6 *62:13 *187:8 3.22051e-05
7 *151:12 *187:12 0.000836344
8 *153:12 *187:12 9.21996e-05
*RES
1 *1886:X *187:8 40.0507 
2 *187:8 *187:12 26.4136 
3 *187:12 *1937:DI[26] 35.4629 
*END

*D_NET *188 0.00820384
*CONN
*I *1937:DI[27] I *D CF_SRAM_1024x32
*I *1887:X O *D sky130_fd_sc_hd__clkbuf_2
*CAP
1 *1937:DI[27] 0.00220553
2 *1887:X 0
3 *188:10 0.00268688
4 *188:6 0.000481353
5 *1937:DI[27] *225:11 0.00134917
6 data_o[28] *188:10 0.000151866
7 *32:15 *1937:DI[27] 4.96207e-05
8 *95:10 *188:10 0
9 *153:12 *188:10 0.00105461
10 *154:12 *188:10 0.00022481
*RES
1 *1887:X *188:6 38 
2 *188:6 *188:10 29.2307 
3 *188:10 *1937:DI[27] 37.3893 
*END

*D_NET *189 0.00828219
*CONN
*I *1937:DI[28] I *D CF_SRAM_1024x32
*I *1888:X O *D sky130_fd_sc_hd__buf_2
*CAP
1 *1937:DI[28] 0.00204731
2 *1888:X 0.000175434
3 *189:12 0.00281112
4 *189:8 0.000939246
5 *1937:DI[28] *226:9 0.00165795
6 *189:12 *190:12 0.000298093
7 *189:12 *192:12 1.00084e-05
8 *189:12 *225:17 0.000144796
9 *189:12 *226:15 0
10 *64:13 *189:8 4.67488e-05
11 *151:12 *189:12 1.00084e-05
12 *153:12 *189:12 0.000141482
*RES
1 *1888:X *189:8 40.0507 
2 *189:8 *189:12 32.0479 
3 *189:12 *1937:DI[28] 35.5043 
*END

*D_NET *190 0.00960272
*CONN
*I *1937:DI[29] I *D CF_SRAM_1024x32
*I *1889:X O *D sky130_fd_sc_hd__buf_2
*CAP
1 *1937:DI[29] 0.00195963
2 *1889:X 0.000243377
3 *190:12 0.00250318
4 *190:8 0.00078693
5 *1937:DI[29] *227:9 0.00168576
6 *190:12 *192:12 3.12217e-05
7 *190:12 *226:15 9.6289e-05
8 *190:12 *227:15 0.00124148
9 *65:13 *190:8 3.29613e-05
10 *114:15 *190:12 0.00072379
11 *189:12 *190:12 0.000298093
*RES
1 *1889:X *190:8 41.0036 
2 *190:8 *190:12 34.865 
3 *190:12 *1937:DI[29] 34.5721 
*END

*D_NET *191 0.0164641
*CONN
*I *1937:DI[2] I *D CF_SRAM_1024x32
*I *1890:X O *D sky130_fd_sc_hd__buf_2
*CAP
1 *1937:DI[2] 0.00267296
2 *1890:X 4.56229e-05
3 *191:16 0.00355685
4 *191:12 0.0018306
5 *191:8 0.000992341
6 *1937:DI[2] *228:9 0.000266049
7 *191:12 *206:17 0.00012827
8 *191:12 *206:19 6.18117e-05
9 *191:16 *204:11 0.000556613
10 data_o[2] *191:12 8.50457e-05
11 *1862:A *191:12 7.07396e-05
12 *66:15 *191:8 2.07484e-05
13 *120:30 *1937:DI[2] 0.000400522
14 *121:22 *191:12 0.000205324
15 *121:26 *191:12 0.000649259
16 *121:26 *191:16 0.0024471
17 *164:10 *191:16 0.000167818
18 *164:18 *191:12 0.00125035
19 *164:18 *191:16 0.0010148
20 *164:22 *191:12 4.12501e-05
*RES
1 *1890:X *191:8 38.6214 
2 *191:8 *191:12 27.2082 
3 *191:12 *191:16 47.8632 
4 *191:16 *1937:DI[2] 36.5711 
*END

*D_NET *192 0.00987384
*CONN
*I *1937:DI[30] I *D CF_SRAM_1024x32
*I *1891:X O *D sky130_fd_sc_hd__buf_2
*CAP
1 *1937:DI[30] 0.00205361
2 *1891:X 0.000110262
3 *192:12 0.00278795
4 *192:8 0.000844607
5 *192:12 *193:12 0.00105718
6 data_o[30] *192:12 2.04934e-05
7 data_o[31] *192:12 3.19211e-05
8 *67:15 *192:8 5.68958e-05
9 *114:9 *1937:DI[30] 0.00173206
10 *114:15 *192:12 0.000236445
11 *115:11 *192:12 0.000901192
12 *189:12 *192:12 1.00084e-05
13 *190:12 *192:12 3.12217e-05
*RES
1 *1891:X *192:8 39.5743 
2 *192:8 *192:12 37.6821 
3 *192:12 *1937:DI[30] 36.0221 
*END

*D_NET *193 0.0102367
*CONN
*I *1937:DI[31] I *D CF_SRAM_1024x32
*I *1892:X O *D sky130_fd_sc_hd__buf_2
*CAP
1 *1937:DI[31] 0.00197874
2 *1892:X 0.000160885
3 *193:12 0.00284457
4 *193:8 0.00102672
5 *68:15 *193:8 3.66555e-05
6 *114:15 *193:12 0.00100447
7 *115:7 *1937:DI[31] 0.00176122
8 *115:11 *193:12 0.000366264
9 *192:12 *193:12 0.00105718
*RES
1 *1892:X *193:8 40.0507 
2 *193:8 *193:12 40.4993 
3 *193:12 *1937:DI[31] 35.5664 
*END

*D_NET *194 0.0137614
*CONN
*I *1937:DI[3] I *D CF_SRAM_1024x32
*I *1893:X O *D sky130_fd_sc_hd__buf_2
*CAP
1 *1937:DI[3] 0.000633062
2 *1893:X 0.00222253
3 *194:10 0.00149526
4 *194:8 0.000862202
5 *194:6 0.00222253
6 *194:10 *203:20 0.000118379
7 *194:10 *216:19 0.00032255
8 *194:10 *228:21 0.00129347
9 *1937:BEN[2] *194:10 2.06613e-05
10 *1937:BEN[6] *194:6 9.47335e-05
11 *69:13 *194:6 4.96207e-05
12 *116:9 *1937:DI[3] 0.000371553
13 *119:27 *194:10 0.00100379
14 *152:36 *194:10 0.000439295
15 *156:16 *194:10 0.000174768
16 *159:10 *194:10 0.00243694
*RES
1 *1893:X *194:6 46.9664 
2 *194:6 *194:8 15 
3 *194:8 *194:10 38.5286 
4 *194:10 *1937:DI[3] 28.6818 
*END

*D_NET *195 0.00918119
*CONN
*I *1937:DI[4] I *D CF_SRAM_1024x32
*I *1894:X O *D sky130_fd_sc_hd__clkbuf_2
*CAP
1 *1937:DI[4] 0.00105324
2 *1894:X 0.0021252
3 *195:12 0.0018193
4 *195:6 0.00289126
5 *195:12 *203:20 0.000149785
6 *1937:BEN[5] *195:6 3.2807e-05
7 *70:15 *195:6 5.3304e-05
8 *117:11 *1937:DI[4] 0
9 *174:10 *195:12 0.0010563
*RES
1 *1894:X *195:6 45.0607 
2 *195:6 *195:12 44.2307 
3 *195:12 *1937:DI[4] 17.3275 
*END

*D_NET *196 0.0149326
*CONN
*I *1937:AD[6] I *D CF_SRAM_1024x32
*I *1895:X O *D sky130_fd_sc_hd__buf_2
*CAP
1 *1937:AD[6] 0.00287319
2 *1895:X 0.000327724
3 *196:12 0.00287319
4 *196:10 0.00132549
5 *196:8 0.00165322
6 *1937:AD[6] *1937:AD[7] 0.000404448
7 *196:10 *200:14 0.00205232
8 *196:10 *205:11 0.00021355
9 *196:10 *210:11 0.00199355
10 *1937:AD[5] *1937:AD[6] 0
11 *7:13 *196:8 4.03039e-05
12 *8:15 *196:10 5.05059e-05
13 *13:15 *1937:AD[6] 0.000241471
14 *13:15 *196:10 0.000106097
15 *41:15 *196:10 7.83014e-05
16 *122:26 *196:10 0.000590975
17 *134:6 *1937:AD[6] 0.000108258
18 *138:10 *196:10 0
*RES
1 *1895:X *196:8 41.9564 
2 *196:8 *196:10 53.6707 
3 *196:10 *196:12 15 
4 *196:12 *1937:AD[6] 41.8377 
*END

*D_NET *197 0.00771254
*CONN
*I *1937:DI[5] I *D CF_SRAM_1024x32
*I *1896:X O *D sky130_fd_sc_hd__clkbuf_2
*CAP
1 *1937:DI[5] 0.00123257
2 *1896:X 0.00178348
3 *197:14 0.00141964
4 *197:6 0.00197055
5 *1937:DI[5] *228:21 0.000421102
6 *197:14 *228:15 0.000408601
7 *71:13 *197:6 5.56279e-05
8 *118:11 *1937:DI[5] 0
9 *152:22 *1937:DI[5] 9.41704e-05
10 *161:12 *197:14 3.53585e-05
11 *166:12 *197:14 0.000291443
*RES
1 *1896:X *197:6 41.2493 
2 *197:6 *197:14 35.9243 
3 *197:14 *1937:DI[5] 19.2954 
*END

*D_NET *198 0.0113601
*CONN
*I *1937:DI[6] I *D CF_SRAM_1024x32
*I *1897:X O *D sky130_fd_sc_hd__buf_2
*CAP
1 *1937:DI[6] 0.000690664
2 *1897:X 0.00239273
3 *198:18 0.00171082
4 *198:6 0.00341289
5 *72:13 *198:6 4.96303e-05
6 *119:19 *1937:DI[6] 0
7 *119:19 *198:18 0.000633026
8 *144:20 *198:18 0.000299163
9 *152:12 *198:18 0.000108079
10 *152:22 *198:18 3.3746e-05
11 *152:36 *198:18 0.001134
12 *159:10 *198:18 0.000895366
*RES
1 *1897:X *198:6 47.9193 
2 *198:6 *198:18 44.145 
3 *198:18 *1937:DI[6] 28.4954 
*END

*D_NET *199 0.0166547
*CONN
*I *1937:DI[7] I *D CF_SRAM_1024x32
*I *1898:X O *D sky130_fd_sc_hd__buf_2
*CAP
1 *1937:DI[7] 0.00131389
2 *1898:X 0.000874839
3 *199:14 0.00226743
4 *199:12 0.00174821
5 *199:8 0.0016695
6 *73:13 *199:8 4.96303e-05
7 *120:12 *1937:DI[7] 0.00240674
8 *120:22 *199:14 0.00278848
9 *120:30 *199:12 0.000988393
10 *141:18 *199:12 1.06693e-05
11 *141:18 *199:14 0.00173695
12 *165:18 *199:14 0.000560704
13 *172:16 *199:12 0.000119043
14 *172:16 *199:14 0.000120226
*RES
1 *1898:X *199:8 48.6264 
2 *199:8 *199:12 14.8004 
3 *199:12 *199:14 38.3525 
4 *199:14 *1937:DI[7] 43.2646 
*END

*D_NET *200 0.0212494
*CONN
*I *1937:DI[8] I *D CF_SRAM_1024x32
*I *1899:X O *D sky130_fd_sc_hd__buf_2
*CAP
1 *1937:DI[8] 0.00160229
2 *1899:X 0.000344172
3 *200:20 0.00160229
4 *200:18 0.000759414
5 *200:16 0.000759414
6 *200:14 0.000472914
7 *200:8 0.000817086
8 *200:18 *201:20 0.00221472
9 *200:18 *205:11 0.00063895
10 *200:18 *210:11 1.01169e-05
11 *3:17 *1937:DI[8] 0.00014852
12 *41:15 *200:8 9.22008e-06
13 *74:13 *200:8 7.15126e-05
14 *102:10 *200:18 5.79413e-06
15 *121:14 *1937:DI[8] 0.00200099
16 *122:14 *200:18 0.00226657
17 *122:24 *200:18 0.00126012
18 *122:26 *200:14 0.00205454
19 *152:6 *1937:DI[8] 0.00215841
20 *196:10 *200:14 0.00205232
*RES
1 *1899:X *200:8 42.4329 
2 *200:8 *200:14 42.7571 
3 *200:14 *200:16 15 
4 *200:16 *200:18 45.5714 
5 *200:18 *200:20 15 
6 *200:20 *1937:DI[8] 42.1018 
*END

*D_NET *201 0.0239824
*CONN
*I *1937:DI[9] I *D CF_SRAM_1024x32
*I *1900:X O *D sky130_fd_sc_hd__buf_2
*CAP
1 *1937:DI[9] 0.0025679
2 *1900:X 0
3 *201:22 0.0025679
4 *201:20 0.000869376
5 *201:18 0.00110039
6 *201:12 0.00124377
7 *201:10 0.00173451
8 *201:6 0.000721759
9 *201:10 *204:11 0.00139993
10 *201:12 *204:11 0.000151408
11 *201:12 *211:11 0.0001412
12 *201:20 *205:11 1.69668e-05
13 *201:20 *210:11 0.00141101
14 data_o[6] *201:12 0.000126103
15 data_o[7] *201:12 0.000122969
16 data_o[8] *201:10 0.000180818
17 *22:15 *201:20 0.000106097
18 *66:15 *201:20 0.000106097
19 *70:15 *201:18 1.32314e-05
20 *101:10 *201:20 0.000131661
21 *102:10 *201:18 0
22 *122:10 *1937:DI[9] 0.00196442
23 *122:14 *201:20 0.00042864
24 *122:24 *201:18 6.17437e-06
25 *164:10 *201:12 0.000389648
26 *164:18 *201:12 0.00148397
27 *185:10 *201:10 0.000537787
28 *185:10 *201:12 0.00224387
29 *200:18 *201:20 0.00221472
*RES
1 *1900:X *201:6 38 
2 *201:6 *201:10 19.9582 
3 *201:10 *201:12 36.5918 
4 *201:12 *201:18 33.48 
5 *201:18 *201:20 40.2893 
6 *201:20 *201:22 15 
7 *201:22 *1937:DI[9] 41.2939 
*END

*D_NET *202 0.0316302
*CONN
*I *1937:EN I *D CF_SRAM_1024x32
*I *1901:X O *D sky130_fd_sc_hd__clkbuf_4
*CAP
1 *1937:EN 0.000378316
2 *1901:X 2.6518e-05
3 *202:24 0.00934471
4 *202:10 0.00899291
5 *202:10 *206:13 5.79413e-06
6 *202:10 *211:11 0
7 *202:24 *203:20 0.0104948
8 *202:24 *216:19 0.00122025
9 *1901:A *202:10 3.74247e-05
10 *1901:A *202:24 2.01437e-05
11 *1902:A *202:24 6.47885e-05
12 *1937:WLOFF *1937:EN 0.00104449
13 *43:11 *202:24 0
*RES
1 *1901:X *202:10 46.6732 
2 *202:10 *202:24 47.4421 
3 *202:24 *1937:EN 34.9004 
*END

*D_NET *203 0.0301185
*CONN
*I *1937:R_WB I *D CF_SRAM_1024x32
*I *1902:X O *D sky130_fd_sc_hd__clkbuf_4
*CAP
1 *1937:R_WB 0.000730137
2 *1902:X 2.55776e-05
3 *203:20 0.0082755
4 *203:10 0.00757094
5 *203:10 *211:11 0
6 *203:20 *218:10 0.00026245
7 *1902:A *203:10 5.02282e-05
8 *1902:A *203:20 1.748e-05
9 *1937:AD[0] *1937:R_WB 8.88552e-05
10 *1937:WLOFF *1937:R_WB 0
11 *119:27 *203:20 0.000118379
12 *134:18 *203:20 0.000395357
13 *136:18 *203:20 0.000306292
14 *152:36 *203:20 0.000113532
15 *152:46 *203:20 0.000396856
16 *156:16 *203:20 0.000332463
17 *174:10 *203:20 0.000671435
18 *194:10 *203:20 0.000118379
19 *195:12 *203:20 0.000149785
20 *202:24 *203:20 0.0104948
*RES
1 *1902:X *203:10 46.6732 
2 *203:10 *203:20 45.2992 
3 *203:20 *1937:R_WB 38.4373 
*END

*D_NET *204 0.0244733
*CONN
*I *229:DIODE I *D sky130_fd_sc_hd__diode_2
*I *1914:A I *D sky130_fd_sc_hd__buf_2
*I *1937:DO[0] O *D CF_SRAM_1024x32
*CAP
1 *229:DIODE 0
2 *1914:A 0.000158274
3 *1937:DO[0] 0.00220543
4 *204:21 0.000158274
5 *204:19 0.00195152
6 *204:17 0.00219794
7 *204:11 0.00130149
8 *204:7 0.0032605
9 *204:11 *206:19 7.24086e-05
10 *204:19 *206:19 0.000632729
11 *204:19 *208:11 0.00529331
12 data_o[7] *204:11 0.000125015
13 data_o[9] *204:11 0.00012827
14 *1840:A *204:19 2.78373e-05
15 *1937:ScanInCC *204:7 9.98657e-05
16 *1937:DI[0] *204:7 0
17 *6:13 *204:19 0.000182379
18 *12:13 *204:7 5.56279e-05
19 *40:15 *204:17 1.59094e-05
20 *113:12 *204:11 0.000349994
21 *121:26 *204:11 0.000358113
22 *133:8 *204:7 0.000143387
23 *137:10 *204:19 0.000845857
24 *141:10 *204:19 0.0026917
25 *164:10 *204:11 1.00084e-05
26 *185:10 *204:11 9.94501e-05
27 *191:16 *204:11 0.000556613
28 *201:10 *204:11 0.00139993
29 *201:12 *204:11 0.000151408
*RES
1 *1937:DO[0] *204:7 36.5711 
2 *204:7 *204:11 47.19 
3 *204:11 *204:17 32.5271 
4 *204:17 *204:19 71.63 
5 *204:19 *204:21 15 
6 *204:21 *1914:A 25.9 
7 *204:21 *229:DIODE 23 
*END

*D_NET *205 0.0260854
*CONN
*I *1915:A I *D sky130_fd_sc_hd__buf_2
*I *230:DIODE I *D sky130_fd_sc_hd__diode_2
*I *1937:DO[10] O *D CF_SRAM_1024x32
*CAP
1 *1915:A 0
2 *230:DIODE 0.000105346
3 *1937:DO[10] 0.00191503
4 *205:15 0.00049989
5 *205:11 0.00303967
6 *205:9 0.00264513
7 *205:7 0.00191503
8 *205:11 *210:11 0
9 *1937:AD[9] *230:DIODE 4.67488e-05
10 *1937:DI[10] *205:7 0.00349685
11 *1:15 *205:7 2.97444e-05
12 *11:13 *205:11 0
13 *13:15 *205:15 0
14 *112:8 *205:7 0.000484346
15 *122:14 *205:11 0.00317568
16 *122:24 *205:11 8.32909e-06
17 *122:26 *205:11 0.00333078
18 *138:10 *205:11 0.00452336
19 *196:10 *205:11 0.00021355
20 *200:18 *205:11 0.00063895
21 *201:20 *205:11 1.69668e-05
*RES
1 *1937:DO[10] *205:7 42.8475 
2 *205:7 *205:9 15 
3 *205:9 *205:11 117.761 
4 *205:11 *205:15 21.3386 
5 *205:15 *230:DIODE 24.5743 
6 *205:15 *1915:A 23 
*END

*D_NET *206 0.0289
*CONN
*I *1916:A I *D sky130_fd_sc_hd__buf_2
*I *231:DIODE I *D sky130_fd_sc_hd__diode_2
*I *1937:DO[11] O *D CF_SRAM_1024x32
*CAP
1 *1916:A 9.88183e-05
2 *231:DIODE 5.43738e-05
3 *1937:DO[11] 0.00168181
4 *206:19 0.00284628
5 *206:17 0.00393565
6 *206:13 0.00210252
7 *206:7 0.00254178
8 *206:13 *208:11 0.00032458
9 *206:13 *211:11 0
10 *206:17 *211:11 0
11 data_o[0] *206:17 6.02514e-05
12 data_o[1] *206:17 3.19211e-05
13 data_o[2] *206:17 2.03626e-05
14 *1840:A *206:17 0.000149711
15 *1862:A *206:19 0.00015497
16 *1901:A *206:13 0.000154409
17 *1902:A *206:13 0.000206902
18 *1937:AD[5] *231:DIODE 2.64616e-05
19 *1937:AD[5] *1916:A 0.000100069
20 *1937:DI[11] *206:7 0.00143614
21 *6:13 *206:19 0.000177953
22 *113:12 *206:19 0.00122242
23 *121:22 *206:17 9.46251e-05
24 *121:26 *206:19 0.00464055
25 *137:10 *1916:A 7.79889e-05
26 *137:10 *206:19 0.00416953
27 *141:10 *206:17 0.000366771
28 *141:10 *206:19 0.00132219
29 *191:12 *206:17 0.00012827
30 *191:12 *206:19 6.18117e-05
31 *202:10 *206:13 5.79413e-06
32 *204:11 *206:19 7.24086e-05
33 *204:19 *206:19 0.000632729
*RES
1 *1937:DO[11] *206:7 35.1498 
2 *206:7 *206:13 33.1561 
3 *206:13 *206:17 26.4107 
4 *206:17 *206:19 95.3996 
5 *206:19 *231:DIODE 38.6214 
6 *206:19 *1916:A 40.2993 
*END

*D_NET *207 0.0118548
*CONN
*I *1937:AD[7] I *D CF_SRAM_1024x32
*I *1903:X O *D sky130_fd_sc_hd__buf_2
*CAP
1 *1937:AD[7] 0.000517816
2 *1903:X 0.00174058
3 *207:12 0.00216447
4 *207:10 0.00164665
5 *207:8 0.00174058
6 *1937:AD[7] *1937:AD[8] 0.00011248
7 *207:12 *218:10 0.000426644
8 *1937:AD[6] *1937:AD[7] 0.000404448
9 *1937:AD[9] *1937:AD[7] 0
10 *1937:BEN[1] *207:12 0.000552883
11 *8:15 *207:8 9.77405e-05
12 *116:9 *207:8 0.000724802
13 *152:36 *207:12 0.00172567
14 *174:10 *207:12 0
*RES
1 *1903:X *207:8 47.94 
2 *207:8 *207:10 15 
3 *207:10 *207:12 42.7543 
4 *207:12 *1937:AD[7] 29.2255 
*END

*D_NET *208 0.0327719
*CONN
*I *1917:A I *D sky130_fd_sc_hd__clkbuf_4
*I *232:DIODE I *D sky130_fd_sc_hd__diode_2
*I *1937:DO[12] O *D CF_SRAM_1024x32
*CAP
1 *1917:A 0.000161979
2 *232:DIODE 0
3 *1937:DO[12] 0.0014536
4 *208:13 0.000161979
5 *208:11 0.00441622
6 *208:9 0.00586982
7 *208:11 *209:11 0.0117691
8 *1937:DI[12] *208:9 0.00147121
9 *137:10 *208:11 0.00185008
10 *204:19 *208:11 0.00529331
11 *206:13 *208:11 0.00032458
*RES
1 *1937:DO[12] *208:9 48.6795 
2 *208:9 *208:11 157.201 
3 *208:11 *208:13 15 
4 *208:13 *232:DIODE 23 
5 *208:13 *1917:A 25.5479 
*END

*D_NET *209 0.0340813
*CONN
*I *1918:A I *D sky130_fd_sc_hd__clkbuf_4
*I *233:DIODE I *D sky130_fd_sc_hd__diode_2
*I *1937:DO[13] O *D CF_SRAM_1024x32
*CAP
1 *1918:A 0.000218023
2 *233:DIODE 0
3 *1937:DO[13] 0.00171829
4 *209:13 0.000218023
5 *209:11 0.00560089
6 *209:9 0.00731918
7 *1937:DI[13] *209:9 0.00059654
8 *75:17 *209:11 0.000125375
9 *112:10 *209:11 0
10 *124:10 *209:11 0.000335982
11 *133:10 *209:11 0
12 *135:10 *209:11 0
13 *137:10 *209:11 0.000215098
14 *165:10 *209:11 0.00262229
15 *167:10 *209:11 0.00060789
16 *169:10 *209:11 0
17 *170:10 *209:11 0
18 *179:10 *209:11 0.00273457
19 *208:11 *209:11 0.0117691
*RES
1 *1937:DO[13] *209:9 48.1747 
2 *209:9 *209:11 176.921 
3 *209:11 *209:13 15 
4 *209:13 *233:DIODE 23 
5 *209:13 *1918:A 26.7286 
*END

*D_NET *210 0.0337221
*CONN
*I *1919:A I *D sky130_fd_sc_hd__buf_2
*I *234:DIODE I *D sky130_fd_sc_hd__diode_2
*I *1937:DO[14] O *D CF_SRAM_1024x32
*CAP
1 *1919:A 0
2 *234:DIODE 4.94818e-05
3 *1937:DO[14] 0.00208187
4 *210:19 0.00072201
5 *210:11 0.00552744
6 *210:9 0.00485491
7 *210:7 0.00208187
8 *210:11 *211:11 0.00268105
9 *210:19 *211:11 0.000859259
10 *1937:DI[14] *210:7 0.000600997
11 *1:15 *210:11 8.0934e-05
12 *8:15 *210:11 5.31385e-05
13 *11:13 *210:11 0.000213049
14 *13:15 *210:11 0.00010873
15 *16:13 *210:19 8.09487e-05
16 *22:15 *210:11 0.00010873
17 *38:15 *210:11 0.000218367
18 *41:15 *210:11 8.0934e-05
19 *66:15 *210:11 0.00010873
20 *80:12 *210:19 5.31385e-05
21 *101:10 *210:11 0.000134294
22 *102:10 *210:11 0.000134294
23 *103:12 *210:11 5.31385e-05
24 *122:24 *210:11 0.000462223
25 *122:26 *210:11 0
26 *138:10 *210:11 0
27 *138:10 *210:19 0
28 *168:10 *210:11 0.008769
29 *175:20 *234:DIODE 0.000146822
30 *175:20 *210:19 4.21048e-05
31 *196:10 *210:11 0.00199355
32 *200:18 *210:11 1.01169e-05
33 *201:20 *210:11 0.00141101
34 *205:11 *210:11 0
*RES
1 *1937:DO[14] *210:7 39.8439 
2 *210:7 *210:9 15 
3 *210:9 *210:11 185.9 
4 *210:11 *210:19 30.6911 
5 *210:19 *234:DIODE 24.5743 
6 *210:19 *1919:A 23 
*END

*D_NET *211 0.0389137
*CONN
*I *1920:A I *D sky130_fd_sc_hd__buf_2
*I *235:DIODE I *D sky130_fd_sc_hd__diode_2
*I *1937:DO[15] O *D CF_SRAM_1024x32
*CAP
1 *1920:A 0
2 *235:DIODE 9.33488e-05
3 *1937:DO[15] 0.00195147
4 *211:17 0.000334537
5 *211:11 0.00807603
6 *211:9 0.00783484
7 *211:7 0.00195147
8 data_o[0] *211:11 0
9 data_o[12] *211:11 3.65014e-05
10 data_o[14] *211:11 0
11 data_o[15] *211:11 0
12 data_o[1] *211:11 3.65014e-05
13 *1834:A *211:11 0
14 *1869:A *211:11 0
15 *1901:A *211:11 0
16 *1902:A *211:11 0
17 *1937:DI[15] *211:7 0.000700013
18 *3:17 *211:11 0.000180019
19 *5:13 *211:11 0.000180939
20 *7:13 *211:11 0.000180939
21 *9:13 *211:11 0.000180939
22 *10:13 *211:11 0.000180939
23 *12:13 *211:11 0.000180241
24 *15:15 *211:11 0.000209421
25 *33:13 *211:11 0.000208037
26 *36:15 *211:11 0.00012758
27 *37:13 *211:11 0.000207256
28 *39:15 *211:11 0.000152214
29 *40:15 *211:11 0.00012758
30 *42:13 *211:11 0.000194078
31 *44:13 *211:11 0.000180241
32 *45:13 *211:11 0.000204095
33 *46:13 *211:11 0.00017708
34 *49:13 *211:11 0
35 *55:13 *211:11 0.000180241
36 *69:13 *211:11 0.000176498
37 *70:15 *211:11 3.84804e-05
38 *71:13 *211:11 0.000145666
39 *72:13 *211:11 0.000180241
40 *73:13 *211:11 0.000180241
41 *74:13 *211:11 0.00017708
42 *121:22 *211:11 3.78747e-05
43 *137:10 *211:11 0
44 *138:10 *211:11 0
45 *164:18 *211:11 0
46 *164:22 *211:11 0.000297907
47 *168:10 *211:11 0.00851047
48 *171:8 *211:11 0
49 *172:12 *211:11 0
50 *175:20 *211:11 0
51 *185:10 *211:11 0.00142116
52 *201:12 *211:11 0.0001412
53 *202:10 *211:11 0
54 *203:10 *211:11 0
55 *206:13 *211:11 0
56 *206:17 *211:11 0
57 *210:11 *211:11 0.00268105
58 *210:19 *211:11 0.000859259
*RES
1 *1937:DO[15] *211:7 38.9118 
2 *211:7 *211:9 15 
3 *211:9 *211:11 216.361 
4 *211:11 *211:17 19.205 
5 *211:17 *235:DIODE 24.5743 
6 *211:17 *1920:A 23 
*END

*D_NET *212 0.007369
*CONN
*I *1921:A I *D sky130_fd_sc_hd__buf_2
*I *1937:DO[16] O *D CF_SRAM_1024x32
*CAP
1 *1921:A 0
2 *1937:DO[16] 0.00181639
3 *212:15 0.000913587
4 *212:9 0.00272998
5 *212:15 *213:17 0.000626421
6 *1837:A *212:15 0
7 *1937:ScanInDR *212:9 0.00018475
8 *1937:DI[16] *212:9 0.00027649
9 *50:17 *212:15 0.000101844
10 *139:10 *212:15 0.000232125
11 *176:12 *212:15 0.000487407
*RES
1 *1937:DO[16] *212:9 49.2614 
2 *212:9 *212:15 36.6879 
3 *212:15 *1921:A 23 
*END

*D_NET *213 0.00669326
*CONN
*I *1922:A I *D sky130_fd_sc_hd__clkbuf_4
*I *1937:DO[17] O *D CF_SRAM_1024x32
*CAP
1 *1922:A 0
2 *1937:DO[17] 0.00160306
3 *213:17 0.000817226
4 *213:11 0.00242028
5 *213:17 *214:13 0
6 *1937:BEN[18] *213:17 0.000125234
7 *1937:WLBI *213:11 0.000826612
8 *1937:DI[17] *213:11 8.88552e-05
9 *176:12 *213:17 0.000185573
10 *212:15 *213:17 0.000626421
*RES
1 *1937:DO[17] *213:11 48.5571 
2 *213:11 *213:17 34.575 
3 *213:17 *1922:A 23 
*END

*D_NET *214 0.005911
*CONN
*I *1923:A I *D sky130_fd_sc_hd__clkbuf_4
*I *1937:DO[18] O *D CF_SRAM_1024x32
*CAP
1 *1923:A 0
2 *1937:DO[18] 0.00201992
3 *214:13 0.00069494
4 *214:7 0.00271486
5 *214:13 *215:15 0.000167123
6 *1937:DI[18] *214:7 0
7 *140:6 *214:7 0.000287441
8 *176:12 *214:13 2.67179e-05
9 *213:17 *214:13 0
*RES
1 *1937:DO[18] *214:7 36.1257 
2 *214:7 *214:13 43.1743 
3 *214:13 *1923:A 23 
*END

*D_NET *215 0.00551965
*CONN
*I *1924:A I *D sky130_fd_sc_hd__buf_2
*I *1937:DO[19] O *D CF_SRAM_1024x32
*CAP
1 *1924:A 0
2 *1937:DO[19] 0.0018609
3 *215:15 0.00057524
4 *215:9 0.00243614
5 data_o[19] *215:15 6.02514e-05
6 *1937:DI[19] *215:9 0
7 *177:6 *215:9 0.000420004
8 *214:13 *215:15 0.000167123
*RES
1 *1937:DO[19] *215:9 36.3743 
2 *215:9 *215:15 41.4136 
3 *215:15 *1924:A 23 
*END

*D_NET *216 0.0197294
*CONN
*I *1925:A I *D sky130_fd_sc_hd__clkbuf_4
*I *1937:DO[1] O *D CF_SRAM_1024x32
*CAP
1 *1925:A 0
2 *1937:DO[1] 0.00081345
3 *216:35 0.00122363
4 *216:31 0.00275235
5 *216:29 0.00184822
6 *216:19 0.00238398
7 *216:9 0.00287793
8 *216:19 *218:10 0.00084964
9 *1937:BEN[2] *216:19 0.000690107
10 *1937:DI[1] *216:9 0
11 *116:11 *216:31 0
12 *119:19 *216:29 0
13 *134:10 *216:31 0
14 *144:10 *216:31 0.00265572
15 *152:36 *216:19 0.00173796
16 *152:42 *216:9 6.17437e-06
17 *161:12 *216:31 6.91399e-05
18 *174:10 *216:19 0.000278262
19 *194:10 *216:19 0.00032255
20 *202:24 *216:19 0.00122025
*RES
1 *1937:DO[1] *216:9 29.4482 
2 *216:9 *216:19 47.5495 
3 *216:19 *216:29 16.5992 
4 *216:29 *216:31 35.7425 
5 *216:31 *216:35 32.2964 
6 *216:35 *1925:A 23 
*END

*D_NET *217 0.00577695
*CONN
*I *1926:A I *D sky130_fd_sc_hd__buf_2
*I *1937:DO[20] O *D CF_SRAM_1024x32
*CAP
1 *1926:A 0
2 *1937:DO[20] 0.00204011
3 *217:15 0.000777418
4 *217:11 0.00281753
5 *180:12 *217:11 0.000141888
*RES
1 *1937:DO[20] *217:11 46.5893 
2 *217:11 *217:15 28.0086 
3 *217:15 *1926:A 23 
*END

*D_NET *218 0.0123575
*CONN
*I *1937:AD[8] I *D CF_SRAM_1024x32
*I *1904:X O *D sky130_fd_sc_hd__buf_2
*CAP
1 *1937:AD[8] 0.000503768
2 *1904:X 0.00204567
3 *218:10 0.00132441
4 *218:6 0.00286631
5 *218:6 *228:9 0.000385463
6 *1937:AD[7] *1937:AD[8] 0.00011248
7 *1937:AD[9] *1937:AD[8] 0.00124659
8 *9:13 *218:6 4.96207e-05
9 *152:36 *218:10 3.81486e-05
10 *174:10 *218:10 0.00224631
11 *203:20 *218:10 0.00026245
12 *207:12 *218:10 0.000426644
13 *216:19 *218:10 0.00084964
*RES
1 *1904:X *218:6 46.0136 
2 *218:6 *218:10 45.0771 
3 *218:10 *1937:AD[8] 29.3084 
*END

*D_NET *219 0.00519807
*CONN
*I *1927:A I *D sky130_fd_sc_hd__buf_2
*I *1937:DO[21] O *D CF_SRAM_1024x32
*CAP
1 *1927:A 0
2 *1937:DO[21] 0.00141197
3 *219:22 0.000794999
4 *219:18 0.00219229
5 *219:6 1.46764e-05
6 *1937:BEN[21] *219:22 0.000784131
7 *1937:DI[21] *219:6 0
8 *1937:DI[21] *219:18 0
*RES
1 *1937:DO[21] *219:6 0.46377 
2 *1937:DO[21] *219:18 40.4786 
3 *219:18 *219:22 31.82 
4 *219:22 *1927:A 23 
*END

*D_NET *220 0.00531441
*CONN
*I *1928:A I *D sky130_fd_sc_hd__buf_2
*I *1937:DO[22] O *D CF_SRAM_1024x32
*CAP
1 *1928:A 0
2 *1937:DO[22] 0.0013971
3 *220:17 0.000122134
4 *220:11 0.00151924
5 data_o[22] *220:17 4.80826e-05
6 *1937:DI[22] *220:11 0.00222785
*RES
1 *1937:DO[22] *220:11 37.0786 
2 *220:11 *220:17 32.2579 
3 *220:17 *1928:A 23 
*END

*D_NET *221 0.00489011
*CONN
*I *1929:A I *D sky130_fd_sc_hd__clkbuf_4
*I *1937:DO[23] O *D CF_SRAM_1024x32
*CAP
1 *1929:A 0
2 *1937:DO[23] 0.0015535
3 *221:11 0.0015535
4 *1937:DI[23] *221:11 0.00178312
*RES
1 *1937:DO[23] *221:11 36.7471 
2 *221:11 *1929:A 23 
*END

*D_NET *222 0.00616456
*CONN
*I *1930:A I *D sky130_fd_sc_hd__buf_2
*I *1937:DO[24] O *D CF_SRAM_1024x32
*CAP
1 *1930:A 0
2 *1937:DO[24] 0.00199471
3 *222:17 0.00012784
4 *222:11 0.00212255
5 *1937:DI[24] *222:11 0.00189748
6 *28:15 *222:11 3.7122e-06
7 *150:8 *222:11 1.82631e-05
*RES
1 *1937:DO[24] *222:11 37.4721 
2 *222:11 *222:17 32.2579 
3 *222:17 *1930:A 23 
*END

*D_NET *223 0.00583054
*CONN
*I *1931:A I *D sky130_fd_sc_hd__buf_2
*I *1937:DO[25] O *D CF_SRAM_1024x32
*CAP
1 *1931:A 0.000381726
2 *1937:DO[25] 0.00186317
3 *223:11 0.0022449
4 *1937:BEN[24] *1931:A 0.00033934
5 *1937:DI[25] *223:11 0.000661793
6 *186:12 *223:11 0.000339617
*RES
1 *1937:DO[25] *223:11 47.9979 
2 *223:11 *1931:A 46.7207 
*END

*D_NET *224 0.00551035
*CONN
*I *1932:A I *D sky130_fd_sc_hd__buf_2
*I *1937:DO[26] O *D CF_SRAM_1024x32
*CAP
1 *1932:A 0
2 *1937:DO[26] 0.00171697
3 *224:15 0.00103821
4 *224:9 0.00275518
5 *1937:BEN[25] *224:9 0
*RES
1 *1937:DO[26] *224:9 43.7514 
2 *224:9 *224:15 31.1571 
3 *224:15 *1932:A 23 
*END

*D_NET *225 0.0070787
*CONN
*I *1933:A I *D sky130_fd_sc_hd__buf_2
*I *1937:DO[27] O *D CF_SRAM_1024x32
*CAP
1 *1933:A 0
2 *1937:DO[27] 0.00108132
3 *225:17 0.000331463
4 *225:11 0.00141278
5 *1937:DI[27] *225:11 0.00134917
6 *32:15 *225:11 6.17437e-06
7 *151:12 *225:17 0.000114764
8 *153:12 *225:17 0.0007933
9 *155:6 *225:11 0.00181449
10 *187:12 *225:17 3.04568e-05
11 *189:12 *225:17 0.000144796
*RES
1 *1937:DO[27] *225:11 37.0579 
2 *225:11 *225:17 40.7093 
3 *225:17 *1933:A 23 
*END

*D_NET *226 0.00647373
*CONN
*I *1934:A I *D sky130_fd_sc_hd__clkbuf_4
*I *1937:DO[28] O *D CF_SRAM_1024x32
*CAP
1 *1934:A 0
2 *1937:DO[28] 0.00132199
3 *226:15 0.000834161
4 *226:9 0.00215615
5 *226:15 *227:15 0.000407199
6 *1937:DI[28] *226:9 0.00165795
7 *189:12 *226:15 0
8 *190:12 *226:15 9.6289e-05
*RES
1 *1937:DO[28] *226:9 48.6607 
2 *226:9 *226:15 32.11 
3 *226:15 *1934:A 23 
*END

*D_NET *227 0.00750411
*CONN
*I *1935:A I *D sky130_fd_sc_hd__clkbuf_4
*I *1937:DO[29] O *D CF_SRAM_1024x32
*CAP
1 *1935:A 0
2 *1937:DO[29] 0.00132784
3 *227:15 0.000666091
4 *227:9 0.00199393
5 *1937:BEN[27] *227:15 0.000181805
6 *1937:DI[29] *227:9 0.00168576
7 *190:12 *227:15 0.00124148
8 *226:15 *227:15 0.000407199
*RES
1 *1937:DO[29] *227:9 48.64 
2 *227:9 *227:15 33.7464 
3 *227:15 *1935:A 23 
*END

*D_NET *228 0.016565
*CONN
*I *1936:A I *D sky130_fd_sc_hd__buf_2
*I *1937:DO[2] O *D CF_SRAM_1024x32
*CAP
1 *1936:A 0
2 *1937:DO[2] 0.000913083
3 *228:25 0.00164128
4 *228:21 0.00255577
5 *228:15 0.00228007
6 *228:9 0.00227867
7 *1937:BEN[1] *228:9 0
8 *1937:DI[5] *228:21 0.000421102
9 *1937:DI[2] *228:9 0.000266049
10 *134:18 *228:21 0.000218943
11 *144:10 *228:15 0.000942971
12 *152:12 *228:21 0
13 *156:16 *228:21 0.0018402
14 *159:10 *228:21 0.00010858
15 *166:12 *228:15 0.00101079
16 *194:10 *228:21 0.00129347
17 *197:14 *228:15 0.000408601
18 *218:6 *228:9 0.000385463
*RES
1 *1937:DO[2] *228:9 33.8396 
2 *228:9 *228:15 49.0957 
3 *228:15 *228:21 44.7043 
4 *228:21 *228:25 37.5371 
5 *228:25 *1936:A 23 
*END
