*SPEF "ieee 1481-1999"
*DESIGN "sram_wrapper_m"
*DATE "11:11:11 Fri 11 11, 1111"
*VENDOR "OpenRCX"
*PROGRAM "Parallel Extraction"
*VERSION "1.0"
*DESIGN_FLOW "NAME_SCOPE LOCAL" "PIN_CAP NONE"
*DIVIDER /
*DELIMITER :
*BUS_DELIMITER []
*T_UNIT 1 NS
*C_UNIT 1 PF
*R_UNIT 1 OHM
*L_UNIT 1 HENRY

*NAME_MAP
*1 addr_i[0]
*2 addr_i[1]
*3 addr_i[2]
*4 addr_i[3]
*5 addr_i[4]
*6 addr_i[5]
*7 addr_i[6]
*8 addr_i[7]
*9 addr_i[8]
*10 addr_i[9]
*11 ben_i[0]
*12 ben_i[10]
*13 ben_i[11]
*14 ben_i[12]
*15 ben_i[13]
*16 ben_i[14]
*17 ben_i[15]
*18 ben_i[16]
*19 ben_i[17]
*20 ben_i[18]
*21 ben_i[19]
*22 ben_i[1]
*23 ben_i[20]
*24 ben_i[21]
*25 ben_i[22]
*26 ben_i[23]
*27 ben_i[24]
*28 ben_i[25]
*29 ben_i[26]
*30 ben_i[27]
*31 ben_i[28]
*32 ben_i[29]
*33 ben_i[2]
*34 ben_i[30]
*35 ben_i[31]
*36 ben_i[3]
*37 ben_i[4]
*38 ben_i[5]
*39 ben_i[6]
*40 ben_i[7]
*41 ben_i[8]
*42 ben_i[9]
*43 clk_i
*44 data_i[0]
*45 data_i[10]
*46 data_i[11]
*47 data_i[12]
*48 data_i[13]
*49 data_i[14]
*50 data_i[15]
*51 data_i[16]
*52 data_i[17]
*53 data_i[18]
*54 data_i[19]
*55 data_i[1]
*56 data_i[20]
*57 data_i[21]
*58 data_i[22]
*59 data_i[23]
*60 data_i[24]
*61 data_i[25]
*62 data_i[26]
*63 data_i[27]
*64 data_i[28]
*65 data_i[29]
*66 data_i[2]
*67 data_i[30]
*68 data_i[31]
*69 data_i[3]
*70 data_i[4]
*71 data_i[5]
*72 data_i[6]
*73 data_i[7]
*74 data_i[8]
*75 data_i[9]
*76 data_o[0]
*77 data_o[10]
*78 data_o[11]
*79 data_o[12]
*80 data_o[13]
*81 data_o[14]
*82 data_o[15]
*83 data_o[16]
*84 data_o[17]
*85 data_o[18]
*86 data_o[19]
*87 data_o[1]
*88 data_o[20]
*89 data_o[21]
*90 data_o[22]
*91 data_o[23]
*92 data_o[24]
*93 data_o[25]
*94 data_o[26]
*95 data_o[27]
*96 data_o[28]
*97 data_o[29]
*98 data_o[2]
*99 data_o[30]
*100 data_o[31]
*101 data_o[3]
*102 data_o[4]
*103 data_o[5]
*104 data_o[6]
*105 data_o[7]
*106 data_o[8]
*107 data_o[9]
*108 en_i
*109 read_en_i
*112 net1
*113 net10
*114 net100
*115 net101
*116 net102
*117 net103
*118 net104
*119 net105
*120 net106
*121 net107
*122 net108
*123 net109
*124 net11
*125 net110
*126 net111
*127 net112
*128 net113
*129 net114
*130 net115
*131 net116
*132 net117
*133 net12
*134 net13
*135 net14
*136 net15
*137 net16
*138 net17
*139 net18
*140 net19
*141 net2
*142 net20
*143 net21
*144 net22
*145 net23
*146 net24
*147 net25
*148 net26
*149 net27
*150 net28
*151 net29
*152 net3
*153 net30
*154 net31
*155 net32
*156 net33
*157 net34
*158 net35
*159 net36
*160 net37
*161 net38
*162 net39
*163 net4
*164 net40
*165 net41
*166 net42
*167 net43
*168 net44
*169 net45
*170 net46
*171 net47
*172 net48
*173 net49
*174 net5
*175 net50
*176 net51
*177 net52
*178 net53
*179 net54
*180 net55
*181 net56
*182 net57
*183 net58
*184 net59
*185 net6
*186 net60
*187 net61
*188 net62
*189 net63
*190 net64
*191 net65
*192 net66
*193 net67
*194 net68
*195 net69
*196 net7
*197 net70
*198 net71
*199 net72
*200 net73
*201 net74
*202 net75
*203 net76
*204 net77
*205 net78
*206 net79
*207 net8
*208 net80
*209 net81
*210 net82
*211 net83
*212 net84
*213 net85
*214 net86
*215 net87
*216 net88
*217 net89
*218 net9
*219 net90
*220 net91
*221 net92
*222 net93
*223 net94
*224 net95
*225 net96
*226 net97
*227 net98
*228 net99
*229 ANTENNA_1
*230 ANTENNA_2
*231 ANTENNA_3
*232 ANTENNA_4
*233 ANTENNA_5
*234 ANTENNA_6
*235 ANTENNA_7
*236 ANTENNA_8
*237 FILLER_0_0_680
*238 FILLER_0_0_692
*239 FILLER_0_0_704
*240 FILLER_0_0_706
*241 FILLER_0_0_718
*242 FILLER_0_0_730
*243 FILLER_0_100_680
*244 FILLER_0_100_692
*245 FILLER_0_100_704
*246 FILLER_0_100_706
*247 FILLER_0_100_718
*248 FILLER_0_100_726
*249 FILLER_0_101_680
*250 FILLER_0_101_692
*251 FILLER_0_101_704
*252 FILLER_0_101_716
*253 FILLER_0_101_728
*254 FILLER_0_102_680
*255 FILLER_0_102_692
*256 FILLER_0_102_704
*257 FILLER_0_102_706
*258 FILLER_0_102_718
*259 FILLER_0_102_726
*260 FILLER_0_103_680
*261 FILLER_0_103_692
*262 FILLER_0_103_704
*263 FILLER_0_103_716
*264 FILLER_0_103_728
*265 FILLER_0_104_680
*266 FILLER_0_104_692
*267 FILLER_0_104_704
*268 FILLER_0_104_706
*269 FILLER_0_104_718
*270 FILLER_0_104_726
*271 FILLER_0_105_680
*272 FILLER_0_105_692
*273 FILLER_0_105_704
*274 FILLER_0_105_716
*275 FILLER_0_105_724
*276 FILLER_0_106_680
*277 FILLER_0_106_692
*278 FILLER_0_106_704
*279 FILLER_0_106_706
*280 FILLER_0_106_718
*281 FILLER_0_106_726
*282 FILLER_0_107_680
*283 FILLER_0_107_692
*284 FILLER_0_107_704
*285 FILLER_0_107_716
*286 FILLER_0_107_728
*287 FILLER_0_108_680
*288 FILLER_0_108_692
*289 FILLER_0_108_704
*290 FILLER_0_108_706
*291 FILLER_0_108_718
*292 FILLER_0_108_726
*293 FILLER_0_109_680
*294 FILLER_0_109_692
*295 FILLER_0_109_704
*296 FILLER_0_109_716
*297 FILLER_0_109_728
*298 FILLER_0_10_680
*299 FILLER_0_10_692
*300 FILLER_0_10_704
*301 FILLER_0_10_706
*302 FILLER_0_10_718
*303 FILLER_0_10_730
*304 FILLER_0_110_680
*305 FILLER_0_110_692
*306 FILLER_0_110_704
*307 FILLER_0_110_706
*308 FILLER_0_110_718
*309 FILLER_0_110_726
*310 FILLER_0_111_680
*311 FILLER_0_111_692
*312 FILLER_0_111_704
*313 FILLER_0_111_716
*314 FILLER_0_111_728
*315 FILLER_0_112_680
*316 FILLER_0_112_692
*317 FILLER_0_112_704
*318 FILLER_0_112_706
*319 FILLER_0_112_718
*320 FILLER_0_112_726
*321 FILLER_0_113_680
*322 FILLER_0_113_692
*323 FILLER_0_113_704
*324 FILLER_0_113_716
*325 FILLER_0_113_728
*326 FILLER_0_114_680
*327 FILLER_0_114_692
*328 FILLER_0_114_704
*329 FILLER_0_114_706
*330 FILLER_0_114_718
*331 FILLER_0_114_726
*332 FILLER_0_115_680
*333 FILLER_0_115_692
*334 FILLER_0_115_704
*335 FILLER_0_115_716
*336 FILLER_0_115_728
*337 FILLER_0_116_680
*338 FILLER_0_116_692
*339 FILLER_0_116_704
*340 FILLER_0_116_706
*341 FILLER_0_116_718
*342 FILLER_0_116_726
*343 FILLER_0_117_680
*344 FILLER_0_117_692
*345 FILLER_0_117_704
*346 FILLER_0_117_716
*347 FILLER_0_117_728
*348 FILLER_0_118_680
*349 FILLER_0_118_692
*350 FILLER_0_118_704
*351 FILLER_0_118_706
*352 FILLER_0_118_718
*353 FILLER_0_118_726
*354 FILLER_0_119_680
*355 FILLER_0_119_692
*356 FILLER_0_119_704
*357 FILLER_0_119_716
*358 FILLER_0_119_728
*359 FILLER_0_11_680
*360 FILLER_0_11_692
*361 FILLER_0_11_704
*362 FILLER_0_11_716
*363 FILLER_0_11_728
*364 FILLER_0_11_732
*365 FILLER_0_120_680
*366 FILLER_0_120_692
*367 FILLER_0_120_704
*368 FILLER_0_120_706
*369 FILLER_0_120_718
*370 FILLER_0_120_726
*371 FILLER_0_121_680
*372 FILLER_0_121_692
*373 FILLER_0_121_704
*374 FILLER_0_121_716
*375 FILLER_0_121_728
*376 FILLER_0_122_680
*377 FILLER_0_122_692
*378 FILLER_0_122_704
*379 FILLER_0_122_706
*380 FILLER_0_122_718
*381 FILLER_0_122_726
*382 FILLER_0_123_680
*383 FILLER_0_123_692
*384 FILLER_0_123_704
*385 FILLER_0_123_716
*386 FILLER_0_123_724
*387 FILLER_0_124_680
*388 FILLER_0_124_692
*389 FILLER_0_124_704
*390 FILLER_0_124_706
*391 FILLER_0_124_718
*392 FILLER_0_124_726
*393 FILLER_0_125_680
*394 FILLER_0_125_692
*395 FILLER_0_125_704
*396 FILLER_0_125_716
*397 FILLER_0_125_728
*398 FILLER_0_126_680
*399 FILLER_0_126_692
*400 FILLER_0_126_704
*401 FILLER_0_126_706
*402 FILLER_0_126_718
*403 FILLER_0_126_726
*404 FILLER_0_127_680
*405 FILLER_0_127_692
*406 FILLER_0_127_704
*407 FILLER_0_127_716
*408 FILLER_0_127_728
*409 FILLER_0_128_680
*410 FILLER_0_128_692
*411 FILLER_0_128_704
*412 FILLER_0_128_706
*413 FILLER_0_128_718
*414 FILLER_0_128_726
*415 FILLER_0_129_680
*416 FILLER_0_129_692
*417 FILLER_0_129_704
*418 FILLER_0_129_716
*419 FILLER_0_129_728
*420 FILLER_0_12_680
*421 FILLER_0_12_692
*422 FILLER_0_12_704
*423 FILLER_0_12_706
*424 FILLER_0_12_718
*425 FILLER_0_12_730
*426 FILLER_0_130_680
*427 FILLER_0_130_692
*428 FILLER_0_130_704
*429 FILLER_0_130_706
*430 FILLER_0_130_718
*431 FILLER_0_130_730
*432 FILLER_0_131_680
*433 FILLER_0_131_692
*434 FILLER_0_131_704
*435 FILLER_0_131_716
*436 FILLER_0_131_728
*437 FILLER_0_131_732
*438 FILLER_0_132_680
*439 FILLER_0_132_692
*440 FILLER_0_132_704
*441 FILLER_0_132_706
*442 FILLER_0_132_718
*443 FILLER_0_132_730
*444 FILLER_0_133_680
*445 FILLER_0_133_692
*446 FILLER_0_133_704
*447 FILLER_0_133_716
*448 FILLER_0_133_728
*449 FILLER_0_133_732
*450 FILLER_0_134_680
*451 FILLER_0_134_692
*452 FILLER_0_134_704
*453 FILLER_0_134_706
*454 FILLER_0_134_718
*455 FILLER_0_134_730
*456 FILLER_0_135_680
*457 FILLER_0_135_692
*458 FILLER_0_135_704
*459 FILLER_0_135_716
*460 FILLER_0_135_728
*461 FILLER_0_135_732
*462 FILLER_0_136_680
*463 FILLER_0_136_692
*464 FILLER_0_136_704
*465 FILLER_0_136_706
*466 FILLER_0_136_718
*467 FILLER_0_136_730
*468 FILLER_0_137_680
*469 FILLER_0_137_692
*470 FILLER_0_137_704
*471 FILLER_0_137_716
*472 FILLER_0_137_728
*473 FILLER_0_137_732
*474 FILLER_0_138_680
*475 FILLER_0_138_692
*476 FILLER_0_138_704
*477 FILLER_0_138_706
*478 FILLER_0_138_718
*479 FILLER_0_138_730
*480 FILLER_0_139_680
*481 FILLER_0_139_692
*482 FILLER_0_139_704
*483 FILLER_0_139_716
*484 FILLER_0_139_728
*485 FILLER_0_139_732
*486 FILLER_0_13_680
*487 FILLER_0_13_692
*488 FILLER_0_13_704
*489 FILLER_0_13_716
*490 FILLER_0_13_728
*491 FILLER_0_13_732
*492 FILLER_0_140_680
*493 FILLER_0_140_692
*494 FILLER_0_140_704
*495 FILLER_0_140_706
*496 FILLER_0_140_718
*497 FILLER_0_140_730
*498 FILLER_0_141_680
*499 FILLER_0_141_692
*500 FILLER_0_141_704
*501 FILLER_0_141_716
*502 FILLER_0_141_728
*503 FILLER_0_141_732
*504 FILLER_0_142_680
*505 FILLER_0_142_692
*506 FILLER_0_142_704
*507 FILLER_0_142_706
*508 FILLER_0_142_718
*509 FILLER_0_142_730
*510 FILLER_0_143_680
*511 FILLER_0_143_692
*512 FILLER_0_143_704
*513 FILLER_0_143_716
*514 FILLER_0_143_728
*515 FILLER_0_143_732
*516 FILLER_0_144_680
*517 FILLER_0_144_692
*518 FILLER_0_144_704
*519 FILLER_0_144_706
*520 FILLER_0_144_718
*521 FILLER_0_144_730
*522 FILLER_0_145_680
*523 FILLER_0_145_692
*524 FILLER_0_145_704
*525 FILLER_0_145_716
*526 FILLER_0_145_728
*527 FILLER_0_145_732
*528 FILLER_0_146_109
*529 FILLER_0_146_113
*530 FILLER_0_146_125
*531 FILLER_0_146_137
*532 FILLER_0_146_141
*533 FILLER_0_146_15
*534 FILLER_0_146_153
*535 FILLER_0_146_165
*536 FILLER_0_146_169
*537 FILLER_0_146_181
*538 FILLER_0_146_193
*539 FILLER_0_146_197
*540 FILLER_0_146_209
*541 FILLER_0_146_221
*542 FILLER_0_146_225
*543 FILLER_0_146_237
*544 FILLER_0_146_249
*545 FILLER_0_146_253
*546 FILLER_0_146_265
*547 FILLER_0_146_27
*548 FILLER_0_146_277
*549 FILLER_0_146_281
*550 FILLER_0_146_29
*551 FILLER_0_146_293
*552 FILLER_0_146_3
*553 FILLER_0_146_305
*554 FILLER_0_146_309
*555 FILLER_0_146_321
*556 FILLER_0_146_333
*557 FILLER_0_146_337
*558 FILLER_0_146_349
*559 FILLER_0_146_361
*560 FILLER_0_146_365
*561 FILLER_0_146_377
*562 FILLER_0_146_389
*563 FILLER_0_146_393
*564 FILLER_0_146_405
*565 FILLER_0_146_41
*566 FILLER_0_146_417
*567 FILLER_0_146_421
*568 FILLER_0_146_433
*569 FILLER_0_146_445
*570 FILLER_0_146_449
*571 FILLER_0_146_461
*572 FILLER_0_146_473
*573 FILLER_0_146_477
*574 FILLER_0_146_489
*575 FILLER_0_146_501
*576 FILLER_0_146_505
*577 FILLER_0_146_517
*578 FILLER_0_146_529
*579 FILLER_0_146_53
*580 FILLER_0_146_533
*581 FILLER_0_146_545
*582 FILLER_0_146_557
*583 FILLER_0_146_561
*584 FILLER_0_146_57
*585 FILLER_0_146_573
*586 FILLER_0_146_585
*587 FILLER_0_146_589
*588 FILLER_0_146_601
*589 FILLER_0_146_613
*590 FILLER_0_146_617
*591 FILLER_0_146_629
*592 FILLER_0_146_641
*593 FILLER_0_146_645
*594 FILLER_0_146_657
*595 FILLER_0_146_669
*596 FILLER_0_146_673
*597 FILLER_0_146_685
*598 FILLER_0_146_69
*599 FILLER_0_146_697
*600 FILLER_0_146_701
*601 FILLER_0_146_713
*602 FILLER_0_146_725
*603 FILLER_0_146_729
*604 FILLER_0_146_81
*605 FILLER_0_146_85
*606 FILLER_0_146_97
*607 FILLER_0_147_105
*608 FILLER_0_147_111
*609 FILLER_0_147_113
*610 FILLER_0_147_125
*611 FILLER_0_147_137
*612 FILLER_0_147_149
*613 FILLER_0_147_15
*614 FILLER_0_147_161
*615 FILLER_0_147_167
*616 FILLER_0_147_169
*617 FILLER_0_147_181
*618 FILLER_0_147_193
*619 FILLER_0_147_205
*620 FILLER_0_147_217
*621 FILLER_0_147_223
*622 FILLER_0_147_225
*623 FILLER_0_147_237
*624 FILLER_0_147_249
*625 FILLER_0_147_261
*626 FILLER_0_147_27
*627 FILLER_0_147_273
*628 FILLER_0_147_279
*629 FILLER_0_147_281
*630 FILLER_0_147_293
*631 FILLER_0_147_3
*632 FILLER_0_147_305
*633 FILLER_0_147_317
*634 FILLER_0_147_329
*635 FILLER_0_147_335
*636 FILLER_0_147_337
*637 FILLER_0_147_349
*638 FILLER_0_147_361
*639 FILLER_0_147_373
*640 FILLER_0_147_385
*641 FILLER_0_147_39
*642 FILLER_0_147_391
*643 FILLER_0_147_393
*644 FILLER_0_147_405
*645 FILLER_0_147_417
*646 FILLER_0_147_429
*647 FILLER_0_147_441
*648 FILLER_0_147_447
*649 FILLER_0_147_449
*650 FILLER_0_147_461
*651 FILLER_0_147_473
*652 FILLER_0_147_485
*653 FILLER_0_147_497
*654 FILLER_0_147_503
*655 FILLER_0_147_505
*656 FILLER_0_147_51
*657 FILLER_0_147_517
*658 FILLER_0_147_529
*659 FILLER_0_147_541
*660 FILLER_0_147_55
*661 FILLER_0_147_553
*662 FILLER_0_147_559
*663 FILLER_0_147_561
*664 FILLER_0_147_57
*665 FILLER_0_147_573
*666 FILLER_0_147_585
*667 FILLER_0_147_597
*668 FILLER_0_147_609
*669 FILLER_0_147_615
*670 FILLER_0_147_617
*671 FILLER_0_147_629
*672 FILLER_0_147_641
*673 FILLER_0_147_653
*674 FILLER_0_147_665
*675 FILLER_0_147_671
*676 FILLER_0_147_673
*677 FILLER_0_147_685
*678 FILLER_0_147_69
*679 FILLER_0_147_697
*680 FILLER_0_147_709
*681 FILLER_0_147_721
*682 FILLER_0_147_727
*683 FILLER_0_147_729
*684 FILLER_0_147_81
*685 FILLER_0_147_93
*686 FILLER_0_148_109
*687 FILLER_0_148_121
*688 FILLER_0_148_133
*689 FILLER_0_148_139
*690 FILLER_0_148_141
*691 FILLER_0_148_15
*692 FILLER_0_148_153
*693 FILLER_0_148_165
*694 FILLER_0_148_177
*695 FILLER_0_148_189
*696 FILLER_0_148_195
*697 FILLER_0_148_197
*698 FILLER_0_148_209
*699 FILLER_0_148_221
*700 FILLER_0_148_233
*701 FILLER_0_148_245
*702 FILLER_0_148_251
*703 FILLER_0_148_253
*704 FILLER_0_148_265
*705 FILLER_0_148_27
*706 FILLER_0_148_277
*707 FILLER_0_148_289
*708 FILLER_0_148_29
*709 FILLER_0_148_3
*710 FILLER_0_148_301
*711 FILLER_0_148_307
*712 FILLER_0_148_309
*713 FILLER_0_148_321
*714 FILLER_0_148_333
*715 FILLER_0_148_345
*716 FILLER_0_148_357
*717 FILLER_0_148_363
*718 FILLER_0_148_365
*719 FILLER_0_148_377
*720 FILLER_0_148_389
*721 FILLER_0_148_401
*722 FILLER_0_148_41
*723 FILLER_0_148_413
*724 FILLER_0_148_419
*725 FILLER_0_148_421
*726 FILLER_0_148_433
*727 FILLER_0_148_445
*728 FILLER_0_148_457
*729 FILLER_0_148_469
*730 FILLER_0_148_475
*731 FILLER_0_148_477
*732 FILLER_0_148_489
*733 FILLER_0_148_501
*734 FILLER_0_148_513
*735 FILLER_0_148_525
*736 FILLER_0_148_53
*737 FILLER_0_148_531
*738 FILLER_0_148_533
*739 FILLER_0_148_545
*740 FILLER_0_148_557
*741 FILLER_0_148_569
*742 FILLER_0_148_581
*743 FILLER_0_148_587
*744 FILLER_0_148_589
*745 FILLER_0_148_601
*746 FILLER_0_148_613
*747 FILLER_0_148_625
*748 FILLER_0_148_637
*749 FILLER_0_148_643
*750 FILLER_0_148_645
*751 FILLER_0_148_65
*752 FILLER_0_148_657
*753 FILLER_0_148_669
*754 FILLER_0_148_681
*755 FILLER_0_148_693
*756 FILLER_0_148_699
*757 FILLER_0_148_701
*758 FILLER_0_148_713
*759 FILLER_0_148_725
*760 FILLER_0_148_77
*761 FILLER_0_148_83
*762 FILLER_0_148_85
*763 FILLER_0_148_97
*764 FILLER_0_149_109
*765 FILLER_0_149_113
*766 FILLER_0_149_125
*767 FILLER_0_149_137
*768 FILLER_0_149_141
*769 FILLER_0_149_15
*770 FILLER_0_149_153
*771 FILLER_0_149_165
*772 FILLER_0_149_169
*773 FILLER_0_149_181
*774 FILLER_0_149_193
*775 FILLER_0_149_197
*776 FILLER_0_149_209
*777 FILLER_0_149_221
*778 FILLER_0_149_225
*779 FILLER_0_149_237
*780 FILLER_0_149_249
*781 FILLER_0_149_253
*782 FILLER_0_149_265
*783 FILLER_0_149_27
*784 FILLER_0_149_277
*785 FILLER_0_149_281
*786 FILLER_0_149_29
*787 FILLER_0_149_293
*788 FILLER_0_149_3
*789 FILLER_0_149_305
*790 FILLER_0_149_309
*791 FILLER_0_149_321
*792 FILLER_0_149_333
*793 FILLER_0_149_337
*794 FILLER_0_149_349
*795 FILLER_0_149_361
*796 FILLER_0_149_365
*797 FILLER_0_149_377
*798 FILLER_0_149_389
*799 FILLER_0_149_393
*800 FILLER_0_149_405
*801 FILLER_0_149_41
*802 FILLER_0_149_417
*803 FILLER_0_149_421
*804 FILLER_0_149_433
*805 FILLER_0_149_445
*806 FILLER_0_149_449
*807 FILLER_0_149_461
*808 FILLER_0_149_473
*809 FILLER_0_149_477
*810 FILLER_0_149_489
*811 FILLER_0_149_501
*812 FILLER_0_149_505
*813 FILLER_0_149_517
*814 FILLER_0_149_529
*815 FILLER_0_149_53
*816 FILLER_0_149_533
*817 FILLER_0_149_545
*818 FILLER_0_149_557
*819 FILLER_0_149_561
*820 FILLER_0_149_57
*821 FILLER_0_149_573
*822 FILLER_0_149_585
*823 FILLER_0_149_589
*824 FILLER_0_149_601
*825 FILLER_0_149_613
*826 FILLER_0_149_617
*827 FILLER_0_149_629
*828 FILLER_0_149_641
*829 FILLER_0_149_645
*830 FILLER_0_149_657
*831 FILLER_0_149_669
*832 FILLER_0_149_673
*833 FILLER_0_149_685
*834 FILLER_0_149_69
*835 FILLER_0_149_697
*836 FILLER_0_149_701
*837 FILLER_0_149_713
*838 FILLER_0_149_725
*839 FILLER_0_149_729
*840 FILLER_0_149_81
*841 FILLER_0_149_85
*842 FILLER_0_149_97
*843 FILLER_0_14_680
*844 FILLER_0_14_692
*845 FILLER_0_14_704
*846 FILLER_0_14_706
*847 FILLER_0_14_718
*848 FILLER_0_14_730
*849 FILLER_0_15_680
*850 FILLER_0_15_692
*851 FILLER_0_15_704
*852 FILLER_0_15_716
*853 FILLER_0_15_728
*854 FILLER_0_15_732
*855 FILLER_0_16_680
*856 FILLER_0_16_692
*857 FILLER_0_16_704
*858 FILLER_0_16_706
*859 FILLER_0_16_718
*860 FILLER_0_16_730
*861 FILLER_0_17_680
*862 FILLER_0_17_692
*863 FILLER_0_17_704
*864 FILLER_0_17_716
*865 FILLER_0_17_728
*866 FILLER_0_17_732
*867 FILLER_0_18_680
*868 FILLER_0_18_692
*869 FILLER_0_18_704
*870 FILLER_0_18_706
*871 FILLER_0_18_718
*872 FILLER_0_18_730
*873 FILLER_0_19_680
*874 FILLER_0_19_692
*875 FILLER_0_19_704
*876 FILLER_0_19_716
*877 FILLER_0_19_728
*878 FILLER_0_19_732
*879 FILLER_0_1_680
*880 FILLER_0_1_692
*881 FILLER_0_1_704
*882 FILLER_0_1_716
*883 FILLER_0_1_728
*884 FILLER_0_1_732
*885 FILLER_0_20_680
*886 FILLER_0_20_692
*887 FILLER_0_20_704
*888 FILLER_0_20_706
*889 FILLER_0_20_718
*890 FILLER_0_20_730
*891 FILLER_0_21_680
*892 FILLER_0_21_692
*893 FILLER_0_21_704
*894 FILLER_0_21_716
*895 FILLER_0_21_728
*896 FILLER_0_21_732
*897 FILLER_0_22_680
*898 FILLER_0_22_692
*899 FILLER_0_22_704
*900 FILLER_0_22_706
*901 FILLER_0_22_718
*902 FILLER_0_22_726
*903 FILLER_0_23_680
*904 FILLER_0_23_692
*905 FILLER_0_23_704
*906 FILLER_0_23_716
*907 FILLER_0_23_724
*908 FILLER_0_24_680
*909 FILLER_0_24_692
*910 FILLER_0_24_704
*911 FILLER_0_24_706
*912 FILLER_0_24_718
*913 FILLER_0_24_726
*914 FILLER_0_25_680
*915 FILLER_0_25_692
*916 FILLER_0_25_704
*917 FILLER_0_25_716
*918 FILLER_0_25_728
*919 FILLER_0_26_680
*920 FILLER_0_26_692
*921 FILLER_0_26_704
*922 FILLER_0_26_706
*923 FILLER_0_26_718
*924 FILLER_0_26_726
*925 FILLER_0_27_680
*926 FILLER_0_27_692
*927 FILLER_0_27_704
*928 FILLER_0_27_716
*929 FILLER_0_27_724
*930 FILLER_0_27_727
*931 FILLER_0_28_680
*932 FILLER_0_28_692
*933 FILLER_0_28_704
*934 FILLER_0_28_706
*935 FILLER_0_28_718
*936 FILLER_0_28_726
*937 FILLER_0_29_680
*938 FILLER_0_29_692
*939 FILLER_0_29_704
*940 FILLER_0_29_716
*941 FILLER_0_29_728
*942 FILLER_0_2_680
*943 FILLER_0_2_692
*944 FILLER_0_2_704
*945 FILLER_0_2_706
*946 FILLER_0_2_718
*947 FILLER_0_2_730
*948 FILLER_0_30_680
*949 FILLER_0_30_692
*950 FILLER_0_30_704
*951 FILLER_0_30_706
*952 FILLER_0_30_718
*953 FILLER_0_30_726
*954 FILLER_0_31_680
*955 FILLER_0_31_692
*956 FILLER_0_31_704
*957 FILLER_0_31_716
*958 FILLER_0_31_724
*959 FILLER_0_32_680
*960 FILLER_0_32_692
*961 FILLER_0_32_704
*962 FILLER_0_32_706
*963 FILLER_0_32_718
*964 FILLER_0_32_726
*965 FILLER_0_33_680
*966 FILLER_0_33_692
*967 FILLER_0_33_704
*968 FILLER_0_33_716
*969 FILLER_0_33_728
*970 FILLER_0_34_680
*971 FILLER_0_34_692
*972 FILLER_0_34_704
*973 FILLER_0_34_706
*974 FILLER_0_34_718
*975 FILLER_0_34_726
*976 FILLER_0_35_680
*977 FILLER_0_35_692
*978 FILLER_0_35_704
*979 FILLER_0_35_716
*980 FILLER_0_35_728
*981 FILLER_0_36_680
*982 FILLER_0_36_692
*983 FILLER_0_36_704
*984 FILLER_0_36_706
*985 FILLER_0_36_718
*986 FILLER_0_36_726
*987 FILLER_0_37_680
*988 FILLER_0_37_692
*989 FILLER_0_37_704
*990 FILLER_0_37_716
*991 FILLER_0_37_728
*992 FILLER_0_38_680
*993 FILLER_0_38_692
*994 FILLER_0_38_704
*995 FILLER_0_38_706
*996 FILLER_0_38_718
*997 FILLER_0_38_726
*998 FILLER_0_39_680
*999 FILLER_0_39_692
*1000 FILLER_0_39_704
*1001 FILLER_0_39_716
*1002 FILLER_0_39_724
*1003 FILLER_0_3_680
*1004 FILLER_0_3_692
*1005 FILLER_0_3_704
*1006 FILLER_0_3_716
*1007 FILLER_0_3_728
*1008 FILLER_0_3_732
*1009 FILLER_0_40_680
*1010 FILLER_0_40_692
*1011 FILLER_0_40_704
*1012 FILLER_0_40_706
*1013 FILLER_0_40_718
*1014 FILLER_0_40_726
*1015 FILLER_0_41_680
*1016 FILLER_0_41_692
*1017 FILLER_0_41_704
*1018 FILLER_0_41_716
*1019 FILLER_0_41_728
*1020 FILLER_0_42_680
*1021 FILLER_0_42_692
*1022 FILLER_0_42_704
*1023 FILLER_0_42_706
*1024 FILLER_0_42_718
*1025 FILLER_0_42_726
*1026 FILLER_0_43_680
*1027 FILLER_0_43_692
*1028 FILLER_0_43_704
*1029 FILLER_0_43_716
*1030 FILLER_0_43_728
*1031 FILLER_0_44_680
*1032 FILLER_0_44_692
*1033 FILLER_0_44_704
*1034 FILLER_0_44_706
*1035 FILLER_0_44_718
*1036 FILLER_0_44_726
*1037 FILLER_0_45_680
*1038 FILLER_0_45_692
*1039 FILLER_0_45_704
*1040 FILLER_0_45_716
*1041 FILLER_0_45_728
*1042 FILLER_0_46_680
*1043 FILLER_0_46_692
*1044 FILLER_0_46_704
*1045 FILLER_0_46_706
*1046 FILLER_0_46_718
*1047 FILLER_0_46_726
*1048 FILLER_0_47_680
*1049 FILLER_0_47_692
*1050 FILLER_0_47_704
*1051 FILLER_0_47_716
*1052 FILLER_0_47_724
*1053 FILLER_0_48_680
*1054 FILLER_0_48_692
*1055 FILLER_0_48_704
*1056 FILLER_0_48_706
*1057 FILLER_0_48_718
*1058 FILLER_0_48_726
*1059 FILLER_0_49_680
*1060 FILLER_0_49_692
*1061 FILLER_0_49_704
*1062 FILLER_0_49_716
*1063 FILLER_0_49_728
*1064 FILLER_0_4_680
*1065 FILLER_0_4_692
*1066 FILLER_0_4_704
*1067 FILLER_0_4_706
*1068 FILLER_0_4_718
*1069 FILLER_0_4_730
*1070 FILLER_0_50_680
*1071 FILLER_0_50_692
*1072 FILLER_0_50_704
*1073 FILLER_0_50_706
*1074 FILLER_0_50_718
*1075 FILLER_0_50_726
*1076 FILLER_0_51_680
*1077 FILLER_0_51_692
*1078 FILLER_0_51_704
*1079 FILLER_0_51_716
*1080 FILLER_0_51_728
*1081 FILLER_0_52_680
*1082 FILLER_0_52_692
*1083 FILLER_0_52_704
*1084 FILLER_0_52_706
*1085 FILLER_0_52_718
*1086 FILLER_0_52_726
*1087 FILLER_0_53_680
*1088 FILLER_0_53_692
*1089 FILLER_0_53_704
*1090 FILLER_0_53_716
*1091 FILLER_0_53_728
*1092 FILLER_0_54_680
*1093 FILLER_0_54_692
*1094 FILLER_0_54_704
*1095 FILLER_0_54_706
*1096 FILLER_0_54_718
*1097 FILLER_0_54_726
*1098 FILLER_0_55_680
*1099 FILLER_0_55_692
*1100 FILLER_0_55_704
*1101 FILLER_0_55_716
*1102 FILLER_0_55_728
*1103 FILLER_0_56_680
*1104 FILLER_0_56_692
*1105 FILLER_0_56_704
*1106 FILLER_0_56_706
*1107 FILLER_0_56_718
*1108 FILLER_0_56_726
*1109 FILLER_0_57_680
*1110 FILLER_0_57_692
*1111 FILLER_0_57_704
*1112 FILLER_0_57_716
*1113 FILLER_0_57_728
*1114 FILLER_0_58_680
*1115 FILLER_0_58_692
*1116 FILLER_0_58_704
*1117 FILLER_0_58_706
*1118 FILLER_0_58_718
*1119 FILLER_0_58_726
*1120 FILLER_0_59_680
*1121 FILLER_0_59_692
*1122 FILLER_0_59_704
*1123 FILLER_0_59_716
*1124 FILLER_0_59_724
*1125 FILLER_0_5_680
*1126 FILLER_0_5_692
*1127 FILLER_0_5_704
*1128 FILLER_0_5_716
*1129 FILLER_0_5_728
*1130 FILLER_0_5_732
*1131 FILLER_0_60_680
*1132 FILLER_0_60_692
*1133 FILLER_0_60_704
*1134 FILLER_0_60_706
*1135 FILLER_0_60_718
*1136 FILLER_0_60_726
*1137 FILLER_0_61_680
*1138 FILLER_0_61_692
*1139 FILLER_0_61_704
*1140 FILLER_0_61_716
*1141 FILLER_0_61_728
*1142 FILLER_0_62_680
*1143 FILLER_0_62_692
*1144 FILLER_0_62_704
*1145 FILLER_0_62_706
*1146 FILLER_0_62_718
*1147 FILLER_0_62_726
*1148 FILLER_0_63_683
*1149 FILLER_0_63_695
*1150 FILLER_0_63_707
*1151 FILLER_0_63_719
*1152 FILLER_0_63_727
*1153 FILLER_0_64_680
*1154 FILLER_0_64_692
*1155 FILLER_0_64_704
*1156 FILLER_0_64_706
*1157 FILLER_0_64_718
*1158 FILLER_0_64_726
*1159 FILLER_0_65_683
*1160 FILLER_0_65_695
*1161 FILLER_0_65_707
*1162 FILLER_0_65_719
*1163 FILLER_0_65_727
*1164 FILLER_0_66_680
*1165 FILLER_0_66_692
*1166 FILLER_0_66_704
*1167 FILLER_0_66_706
*1168 FILLER_0_66_718
*1169 FILLER_0_66_724
*1170 FILLER_0_66_727
*1171 FILLER_0_67_680
*1172 FILLER_0_67_692
*1173 FILLER_0_67_704
*1174 FILLER_0_67_716
*1175 FILLER_0_67_724
*1176 FILLER_0_68_680
*1177 FILLER_0_68_692
*1178 FILLER_0_68_704
*1179 FILLER_0_68_706
*1180 FILLER_0_68_718
*1181 FILLER_0_68_726
*1182 FILLER_0_69_680
*1183 FILLER_0_69_692
*1184 FILLER_0_69_704
*1185 FILLER_0_69_716
*1186 FILLER_0_69_724
*1187 FILLER_0_69_727
*1188 FILLER_0_6_680
*1189 FILLER_0_6_692
*1190 FILLER_0_6_704
*1191 FILLER_0_6_706
*1192 FILLER_0_6_718
*1193 FILLER_0_6_730
*1194 FILLER_0_70_680
*1195 FILLER_0_70_692
*1196 FILLER_0_70_704
*1197 FILLER_0_70_706
*1198 FILLER_0_70_718
*1199 FILLER_0_70_726
*1200 FILLER_0_71_686
*1201 FILLER_0_71_698
*1202 FILLER_0_71_710
*1203 FILLER_0_71_722
*1204 FILLER_0_71_726
*1205 FILLER_0_72_680
*1206 FILLER_0_72_692
*1207 FILLER_0_72_704
*1208 FILLER_0_72_706
*1209 FILLER_0_72_718
*1210 FILLER_0_72_722
*1211 FILLER_0_72_725
*1212 FILLER_0_73_680
*1213 FILLER_0_73_692
*1214 FILLER_0_73_704
*1215 FILLER_0_73_716
*1216 FILLER_0_73_724
*1217 FILLER_0_74_680
*1218 FILLER_0_74_692
*1219 FILLER_0_74_704
*1220 FILLER_0_74_706
*1221 FILLER_0_74_718
*1222 FILLER_0_74_726
*1223 FILLER_0_75_683
*1224 FILLER_0_75_695
*1225 FILLER_0_75_707
*1226 FILLER_0_75_719
*1227 FILLER_0_75_725
*1228 FILLER_0_76_683
*1229 FILLER_0_76_695
*1230 FILLER_0_76_703
*1231 FILLER_0_76_706
*1232 FILLER_0_76_718
*1233 FILLER_0_76_726
*1234 FILLER_0_77_683
*1235 FILLER_0_77_695
*1236 FILLER_0_77_707
*1237 FILLER_0_77_719
*1238 FILLER_0_78_680
*1239 FILLER_0_78_692
*1240 FILLER_0_78_704
*1241 FILLER_0_78_706
*1242 FILLER_0_78_718
*1243 FILLER_0_78_724
*1244 FILLER_0_78_727
*1245 FILLER_0_79_680
*1246 FILLER_0_79_692
*1247 FILLER_0_79_704
*1248 FILLER_0_79_716
*1249 FILLER_0_79_724
*1250 FILLER_0_7_680
*1251 FILLER_0_7_692
*1252 FILLER_0_7_704
*1253 FILLER_0_7_716
*1254 FILLER_0_7_728
*1255 FILLER_0_7_732
*1256 FILLER_0_80_680
*1257 FILLER_0_80_692
*1258 FILLER_0_80_704
*1259 FILLER_0_80_706
*1260 FILLER_0_80_718
*1261 FILLER_0_80_726
*1262 FILLER_0_81_686
*1263 FILLER_0_81_698
*1264 FILLER_0_81_710
*1265 FILLER_0_81_722
*1266 FILLER_0_81_727
*1267 FILLER_0_82_680
*1268 FILLER_0_82_692
*1269 FILLER_0_82_704
*1270 FILLER_0_82_706
*1271 FILLER_0_82_718
*1272 FILLER_0_82_726
*1273 FILLER_0_83_680
*1274 FILLER_0_83_692
*1275 FILLER_0_83_704
*1276 FILLER_0_83_716
*1277 FILLER_0_83_728
*1278 FILLER_0_84_680
*1279 FILLER_0_84_692
*1280 FILLER_0_84_704
*1281 FILLER_0_84_706
*1282 FILLER_0_84_718
*1283 FILLER_0_84_726
*1284 FILLER_0_85_680
*1285 FILLER_0_85_692
*1286 FILLER_0_85_704
*1287 FILLER_0_85_716
*1288 FILLER_0_85_728
*1289 FILLER_0_86_680
*1290 FILLER_0_86_692
*1291 FILLER_0_86_704
*1292 FILLER_0_86_706
*1293 FILLER_0_86_718
*1294 FILLER_0_86_726
*1295 FILLER_0_87_680
*1296 FILLER_0_87_692
*1297 FILLER_0_87_704
*1298 FILLER_0_87_716
*1299 FILLER_0_87_724
*1300 FILLER_0_88_680
*1301 FILLER_0_88_692
*1302 FILLER_0_88_704
*1303 FILLER_0_88_706
*1304 FILLER_0_88_718
*1305 FILLER_0_88_726
*1306 FILLER_0_89_680
*1307 FILLER_0_89_692
*1308 FILLER_0_89_704
*1309 FILLER_0_89_716
*1310 FILLER_0_89_728
*1311 FILLER_0_8_680
*1312 FILLER_0_8_692
*1313 FILLER_0_8_704
*1314 FILLER_0_8_706
*1315 FILLER_0_8_718
*1316 FILLER_0_8_730
*1317 FILLER_0_90_680
*1318 FILLER_0_90_692
*1319 FILLER_0_90_704
*1320 FILLER_0_90_706
*1321 FILLER_0_90_718
*1322 FILLER_0_90_726
*1323 FILLER_0_91_680
*1324 FILLER_0_91_692
*1325 FILLER_0_91_704
*1326 FILLER_0_91_716
*1327 FILLER_0_91_728
*1328 FILLER_0_92_680
*1329 FILLER_0_92_692
*1330 FILLER_0_92_704
*1331 FILLER_0_92_706
*1332 FILLER_0_92_718
*1333 FILLER_0_92_726
*1334 FILLER_0_93_680
*1335 FILLER_0_93_692
*1336 FILLER_0_93_704
*1337 FILLER_0_93_716
*1338 FILLER_0_93_728
*1339 FILLER_0_94_680
*1340 FILLER_0_94_692
*1341 FILLER_0_94_704
*1342 FILLER_0_94_706
*1343 FILLER_0_94_718
*1344 FILLER_0_94_726
*1345 FILLER_0_95_680
*1346 FILLER_0_95_692
*1347 FILLER_0_95_704
*1348 FILLER_0_95_716
*1349 FILLER_0_95_728
*1350 FILLER_0_96_680
*1351 FILLER_0_96_692
*1352 FILLER_0_96_704
*1353 FILLER_0_96_706
*1354 FILLER_0_96_718
*1355 FILLER_0_96_726
*1356 FILLER_0_97_680
*1357 FILLER_0_97_692
*1358 FILLER_0_97_704
*1359 FILLER_0_97_716
*1360 FILLER_0_97_728
*1361 FILLER_0_98_680
*1362 FILLER_0_98_692
*1363 FILLER_0_98_704
*1364 FILLER_0_98_706
*1365 FILLER_0_98_718
*1366 FILLER_0_98_726
*1367 FILLER_0_99_680
*1368 FILLER_0_99_692
*1369 FILLER_0_99_704
*1370 FILLER_0_99_716
*1371 FILLER_0_99_728
*1372 FILLER_0_9_680
*1373 FILLER_0_9_692
*1374 FILLER_0_9_704
*1375 FILLER_0_9_716
*1376 FILLER_0_9_728
*1377 FILLER_0_9_732
*1378 PHY_0
*1379 PHY_1
*1380 PHY_10
*1381 PHY_100
*1382 PHY_101
*1383 PHY_102
*1384 PHY_103
*1385 PHY_104
*1386 PHY_105
*1387 PHY_106
*1388 PHY_107
*1389 PHY_108
*1390 PHY_109
*1391 PHY_11
*1392 PHY_110
*1393 PHY_111
*1394 PHY_112
*1395 PHY_113
*1396 PHY_114
*1397 PHY_115
*1398 PHY_116
*1399 PHY_117
*1400 PHY_118
*1401 PHY_119
*1402 PHY_12
*1403 PHY_120
*1404 PHY_121
*1405 PHY_122
*1406 PHY_123
*1407 PHY_124
*1408 PHY_125
*1409 PHY_126
*1410 PHY_127
*1411 PHY_128
*1412 PHY_129
*1413 PHY_13
*1414 PHY_130
*1415 PHY_131
*1416 PHY_132
*1417 PHY_133
*1418 PHY_134
*1419 PHY_135
*1420 PHY_136
*1421 PHY_137
*1422 PHY_138
*1423 PHY_139
*1424 PHY_14
*1425 PHY_140
*1426 PHY_141
*1427 PHY_142
*1428 PHY_143
*1429 PHY_144
*1430 PHY_145
*1431 PHY_146
*1432 PHY_147
*1433 PHY_148
*1434 PHY_149
*1435 PHY_15
*1436 PHY_150
*1437 PHY_151
*1438 PHY_152
*1439 PHY_153
*1440 PHY_154
*1441 PHY_155
*1442 PHY_156
*1443 PHY_157
*1444 PHY_158
*1445 PHY_159
*1446 PHY_16
*1447 PHY_160
*1448 PHY_161
*1449 PHY_162
*1450 PHY_163
*1451 PHY_164
*1452 PHY_165
*1453 PHY_166
*1454 PHY_167
*1455 PHY_168
*1456 PHY_169
*1457 PHY_17
*1458 PHY_170
*1459 PHY_171
*1460 PHY_172
*1461 PHY_173
*1462 PHY_174
*1463 PHY_175
*1464 PHY_176
*1465 PHY_177
*1466 PHY_178
*1467 PHY_179
*1468 PHY_18
*1469 PHY_180
*1470 PHY_181
*1471 PHY_182
*1472 PHY_183
*1473 PHY_184
*1474 PHY_185
*1475 PHY_186
*1476 PHY_187
*1477 PHY_188
*1478 PHY_189
*1479 PHY_19
*1480 PHY_190
*1481 PHY_191
*1482 PHY_192
*1483 PHY_193
*1484 PHY_194
*1485 PHY_195
*1486 PHY_196
*1487 PHY_197
*1488 PHY_198
*1489 PHY_199
*1490 PHY_2
*1491 PHY_20
*1492 PHY_200
*1493 PHY_201
*1494 PHY_202
*1495 PHY_203
*1496 PHY_204
*1497 PHY_205
*1498 PHY_206
*1499 PHY_207
*1500 PHY_208
*1501 PHY_209
*1502 PHY_21
*1503 PHY_210
*1504 PHY_211
*1505 PHY_212
*1506 PHY_213
*1507 PHY_214
*1508 PHY_215
*1509 PHY_216
*1510 PHY_217
*1511 PHY_218
*1512 PHY_219
*1513 PHY_22
*1514 PHY_220
*1515 PHY_221
*1516 PHY_222
*1517 PHY_223
*1518 PHY_224
*1519 PHY_225
*1520 PHY_226
*1521 PHY_227
*1522 PHY_228
*1523 PHY_229
*1524 PHY_23
*1525 PHY_230
*1526 PHY_231
*1527 PHY_232
*1528 PHY_233
*1529 PHY_234
*1530 PHY_235
*1531 PHY_236
*1532 PHY_237
*1533 PHY_238
*1534 PHY_239
*1535 PHY_24
*1536 PHY_240
*1537 PHY_241
*1538 PHY_242
*1539 PHY_243
*1540 PHY_244
*1541 PHY_245
*1542 PHY_246
*1543 PHY_247
*1544 PHY_248
*1545 PHY_249
*1546 PHY_25
*1547 PHY_250
*1548 PHY_251
*1549 PHY_252
*1550 PHY_253
*1551 PHY_254
*1552 PHY_255
*1553 PHY_256
*1554 PHY_257
*1555 PHY_258
*1556 PHY_259
*1557 PHY_26
*1558 PHY_260
*1559 PHY_261
*1560 PHY_262
*1561 PHY_263
*1562 PHY_264
*1563 PHY_265
*1564 PHY_266
*1565 PHY_267
*1566 PHY_268
*1567 PHY_269
*1568 PHY_27
*1569 PHY_270
*1570 PHY_271
*1571 PHY_272
*1572 PHY_273
*1573 PHY_274
*1574 PHY_275
*1575 PHY_276
*1576 PHY_277
*1577 PHY_278
*1578 PHY_279
*1579 PHY_28
*1580 PHY_280
*1581 PHY_281
*1582 PHY_282
*1583 PHY_283
*1584 PHY_284
*1585 PHY_285
*1586 PHY_286
*1587 PHY_287
*1588 PHY_288
*1589 PHY_289
*1590 PHY_29
*1591 PHY_290
*1592 PHY_291
*1593 PHY_292
*1594 PHY_293
*1595 PHY_294
*1596 PHY_295
*1597 PHY_296
*1598 PHY_297
*1599 PHY_298
*1600 PHY_299
*1601 PHY_3
*1602 PHY_30
*1603 PHY_31
*1604 PHY_32
*1605 PHY_33
*1606 PHY_34
*1607 PHY_35
*1608 PHY_36
*1609 PHY_37
*1610 PHY_38
*1611 PHY_39
*1612 PHY_4
*1613 PHY_40
*1614 PHY_41
*1615 PHY_42
*1616 PHY_43
*1617 PHY_44
*1618 PHY_45
*1619 PHY_46
*1620 PHY_47
*1621 PHY_48
*1622 PHY_49
*1623 PHY_5
*1624 PHY_50
*1625 PHY_51
*1626 PHY_52
*1627 PHY_53
*1628 PHY_54
*1629 PHY_55
*1630 PHY_56
*1631 PHY_57
*1632 PHY_58
*1633 PHY_59
*1634 PHY_6
*1635 PHY_60
*1636 PHY_61
*1637 PHY_62
*1638 PHY_63
*1639 PHY_64
*1640 PHY_65
*1641 PHY_66
*1642 PHY_67
*1643 PHY_68
*1644 PHY_69
*1645 PHY_7
*1646 PHY_70
*1647 PHY_71
*1648 PHY_72
*1649 PHY_73
*1650 PHY_74
*1651 PHY_75
*1652 PHY_76
*1653 PHY_77
*1654 PHY_78
*1655 PHY_79
*1656 PHY_8
*1657 PHY_80
*1658 PHY_81
*1659 PHY_82
*1660 PHY_83
*1661 PHY_84
*1662 PHY_85
*1663 PHY_86
*1664 PHY_87
*1665 PHY_88
*1666 PHY_89
*1667 PHY_9
*1668 PHY_90
*1669 PHY_91
*1670 PHY_92
*1671 PHY_93
*1672 PHY_94
*1673 PHY_95
*1674 PHY_96
*1675 PHY_97
*1676 PHY_98
*1677 PHY_99
*1678 TAP_300
*1679 TAP_301
*1680 TAP_302
*1681 TAP_303
*1682 TAP_304
*1683 TAP_305
*1684 TAP_306
*1685 TAP_307
*1686 TAP_308
*1687 TAP_309
*1688 TAP_310
*1689 TAP_311
*1690 TAP_312
*1691 TAP_313
*1692 TAP_314
*1693 TAP_315
*1694 TAP_316
*1695 TAP_317
*1696 TAP_318
*1697 TAP_319
*1698 TAP_320
*1699 TAP_321
*1700 TAP_322
*1701 TAP_323
*1702 TAP_324
*1703 TAP_325
*1704 TAP_326
*1705 TAP_327
*1706 TAP_328
*1707 TAP_329
*1708 TAP_330
*1709 TAP_331
*1710 TAP_332
*1711 TAP_333
*1712 TAP_334
*1713 TAP_335
*1714 TAP_336
*1715 TAP_337
*1716 TAP_338
*1717 TAP_339
*1718 TAP_340
*1719 TAP_341
*1720 TAP_342
*1721 TAP_343
*1722 TAP_344
*1723 TAP_345
*1724 TAP_346
*1725 TAP_347
*1726 TAP_348
*1727 TAP_349
*1728 TAP_350
*1729 TAP_351
*1730 TAP_352
*1731 TAP_353
*1732 TAP_354
*1733 TAP_355
*1734 TAP_356
*1735 TAP_357
*1736 TAP_358
*1737 TAP_359
*1738 TAP_360
*1739 TAP_361
*1740 TAP_362
*1741 TAP_363
*1742 TAP_364
*1743 TAP_365
*1744 TAP_366
*1745 TAP_367
*1746 TAP_368
*1747 TAP_369
*1748 TAP_370
*1749 TAP_371
*1750 TAP_372
*1751 TAP_373
*1752 TAP_374
*1753 TAP_375
*1754 TAP_376
*1755 TAP_377
*1756 TAP_378
*1757 TAP_379
*1758 TAP_380
*1759 TAP_381
*1760 TAP_382
*1761 TAP_383
*1762 TAP_384
*1763 TAP_385
*1764 TAP_386
*1765 TAP_387
*1766 TAP_388
*1767 TAP_389
*1768 TAP_390
*1769 TAP_391
*1770 TAP_392
*1771 TAP_393
*1772 TAP_394
*1773 TAP_395
*1774 TAP_396
*1775 TAP_397
*1776 TAP_398
*1777 TAP_399
*1778 TAP_400
*1779 TAP_401
*1780 TAP_402
*1781 TAP_403
*1782 TAP_404
*1783 TAP_405
*1784 TAP_406
*1785 TAP_407
*1786 TAP_408
*1787 TAP_409
*1788 TAP_410
*1789 TAP_411
*1790 TAP_412
*1791 TAP_413
*1792 TAP_414
*1793 TAP_415
*1794 TAP_416
*1795 TAP_417
*1796 TAP_418
*1797 TAP_419
*1798 TAP_420
*1799 TAP_421
*1800 TAP_422
*1801 TAP_423
*1802 TAP_424
*1803 TAP_425
*1804 TAP_426
*1805 TAP_427
*1806 TAP_428
*1807 TAP_429
*1808 TAP_430
*1809 TAP_431
*1810 TAP_432
*1811 TAP_433
*1812 TAP_434
*1813 TAP_435
*1814 TAP_436
*1815 TAP_437
*1816 TAP_438
*1817 TAP_439
*1818 TAP_440
*1819 TAP_441
*1820 TAP_442
*1821 TAP_443
*1822 TAP_444
*1823 TAP_445
*1824 TAP_446
*1825 TAP_447
*1826 TAP_448
*1827 TAP_449
*1828 TAP_450
*1829 input1
*1830 input10
*1831 input11
*1832 input12
*1833 input13
*1834 input14
*1835 input15
*1836 input16
*1837 input17
*1838 input18
*1839 input19
*1840 input2
*1841 input20
*1842 input21
*1843 input22
*1844 input23
*1845 input24
*1846 input25
*1847 input26
*1848 input27
*1849 input28
*1850 input29
*1851 input3
*1852 input30
*1853 input31
*1854 input32
*1855 input33
*1856 input34
*1857 input35
*1858 input36
*1859 input37
*1860 input38
*1861 input39
*1862 input4
*1863 input40
*1864 input41
*1865 input42
*1866 input43
*1867 input44
*1868 input45
*1869 input46
*1870 input47
*1871 input48
*1872 input49
*1873 input5
*1874 input50
*1875 input51
*1876 input52
*1877 input53
*1878 input54
*1879 input55
*1880 input56
*1881 input57
*1882 input58
*1883 input59
*1884 input6
*1885 input60
*1886 input61
*1887 input62
*1888 input63
*1889 input64
*1890 input65
*1891 input66
*1892 input67
*1893 input68
*1894 input69
*1895 input7
*1896 input70
*1897 input71
*1898 input72
*1899 input73
*1900 input74
*1901 input75
*1902 input76
*1903 input8
*1904 input9
*1905 output100
*1906 output101
*1907 output102
*1908 output103
*1909 output104
*1910 output105
*1911 output106
*1912 output107
*1913 output108
*1914 output77
*1915 output78
*1916 output79
*1917 output80
*1918 output81
*1919 output82
*1920 output83
*1921 output84
*1922 output85
*1923 output86
*1924 output87
*1925 output88
*1926 output89
*1927 output90
*1928 output91
*1929 output92
*1930 output93
*1931 output94
*1932 output95
*1933 output96
*1934 output97
*1935 output98
*1936 output99
*1937 sram
*1938 sram_109
*1939 sram_110
*1940 sram_111
*1941 sram_112
*1942 sram_113
*1943 sram_114
*1944 sram_115
*1945 sram_116
*1946 sram_117

*PORTS
addr_i[0] I
addr_i[1] I
addr_i[2] I
addr_i[3] I
addr_i[4] I
addr_i[5] I
addr_i[6] I
addr_i[7] I
addr_i[8] I
addr_i[9] I
ben_i[0] I
ben_i[10] I
ben_i[11] I
ben_i[12] I
ben_i[13] I
ben_i[14] I
ben_i[15] I
ben_i[16] I
ben_i[17] I
ben_i[18] I
ben_i[19] I
ben_i[1] I
ben_i[20] I
ben_i[21] I
ben_i[22] I
ben_i[23] I
ben_i[24] I
ben_i[25] I
ben_i[26] I
ben_i[27] I
ben_i[28] I
ben_i[29] I
ben_i[2] I
ben_i[30] I
ben_i[31] I
ben_i[3] I
ben_i[4] I
ben_i[5] I
ben_i[6] I
ben_i[7] I
ben_i[8] I
ben_i[9] I
clk_i I
data_i[0] I
data_i[10] I
data_i[11] I
data_i[12] I
data_i[13] I
data_i[14] I
data_i[15] I
data_i[16] I
data_i[17] I
data_i[18] I
data_i[19] I
data_i[1] I
data_i[20] I
data_i[21] I
data_i[22] I
data_i[23] I
data_i[24] I
data_i[25] I
data_i[26] I
data_i[27] I
data_i[28] I
data_i[29] I
data_i[2] I
data_i[30] I
data_i[31] I
data_i[3] I
data_i[4] I
data_i[5] I
data_i[6] I
data_i[7] I
data_i[8] I
data_i[9] I
data_o[0] O
data_o[10] O
data_o[11] O
data_o[12] O
data_o[13] O
data_o[14] O
data_o[15] O
data_o[16] O
data_o[17] O
data_o[18] O
data_o[19] O
data_o[1] O
data_o[20] O
data_o[21] O
data_o[22] O
data_o[23] O
data_o[24] O
data_o[25] O
data_o[26] O
data_o[27] O
data_o[28] O
data_o[29] O
data_o[2] O
data_o[30] O
data_o[31] O
data_o[3] O
data_o[4] O
data_o[5] O
data_o[6] O
data_o[7] O
data_o[8] O
data_o[9] O
en_i I
read_en_i I

*D_NET *1 0.00095282
*CONN
*P addr_i[0] I
*I *1829:A I *D sky130_fd_sc_hd__clkbuf_4
*CAP
1 addr_i[0] 0.000303666
2 *1829:A 0.000303666
3 *1829:A *1831:A 3.73442e-05
4 *1829:A *1902:A 3.73442e-05
5 *1829:A *1937:DI[10] 0.000175489
6 *1829:A *205:9 2.81089e-05
7 *1829:A *210:11 6.72027e-05
*RES
1 addr_i[0] *1829:A 9.43217 
*END

*D_NET *2 0.00109424
*CONN
*P addr_i[1] I
*I *1840:A I *D sky130_fd_sc_hd__clkbuf_4
*CAP
1 addr_i[1] 0.000393527
2 *1840:A 0.000393527
3 *1840:A data_o[0] 0.000115638
4 *1840:A *1843:A 3.73442e-05
5 *1840:A *1878:A 0
6 *1840:A *204:19 3.10059e-05
7 *1840:A *206:17 0.000123197
*RES
1 addr_i[1] *1840:A 6.35483 
*END

*D_NET *3 0.00112347
*CONN
*P addr_i[2] I
*I *1851:A I *D sky130_fd_sc_hd__clkbuf_4
*CAP
1 addr_i[2] 0.000297639
2 *1851:A 0.000297639
3 *1851:A data_o[1] 7.61612e-05
4 *1851:A *1855:A 7.32586e-05
5 *1851:A *1937:DI[8] 0.000136078
6 *1851:A *121:24 9.25432e-05
7 *1851:A *211:11 0.000150149
*RES
1 addr_i[2] *1851:A 9.15523 
*END

*D_NET *4 0.00112612
*CONN
*P addr_i[3] I
*I *1862:A I *D sky130_fd_sc_hd__clkbuf_4
*CAP
1 addr_i[3] 0.000380368
2 *1862:A 0.000380368
3 *1862:A data_o[2] 9.94595e-05
4 *1862:A *1858:A 7.26399e-05
5 *1862:A *191:16 6.70749e-05
6 *1862:A *206:19 0.000126207
*RES
1 addr_i[3] *1862:A 6.35483 
*END

*D_NET *5 0.0010074
*CONN
*P addr_i[4] I
*I *1873:A I *D sky130_fd_sc_hd__buf_2
*CAP
1 addr_i[4] 0.000329717
2 *1873:A 0.000329717
3 *1873:A data_o[3] 2.74143e-05
4 *1873:A *1859:A 7.26399e-05
5 *1873:A *1893:A 0
6 *1873:A *164:22 5.10684e-05
7 *1873:A *174:8 4.60061e-05
8 *1873:A *211:11 0.000150837
*RES
1 addr_i[4] *1873:A 8.09023 
*END

*D_NET *6 0.00156666
*CONN
*P addr_i[5] I
*I *1884:A I *D sky130_fd_sc_hd__buf_2
*CAP
1 addr_i[5] 0.000604208
2 *1884:A 0.000604208
3 *1884:A data_o[4] 3.38305e-05
4 *1884:A *1860:A 3.03245e-05
5 *1884:A *1894:A 0
6 *1884:A *1896:A 0
7 *1884:A *1937:BEN[15] 0
8 *1884:A *204:19 0.000148302
9 *1884:A *206:19 0.00014579
*RES
1 addr_i[5] *1884:A 7.86637 
*END

*D_NET *7 0.0010875
*CONN
*P addr_i[6] I
*I *1895:A I *D sky130_fd_sc_hd__buf_2
*CAP
1 addr_i[6] 0.00032046
2 *1895:A 0.00032046
3 *1895:A data_o[5] 3.03245e-05
4 *1895:A *1861:A 7.26475e-05
5 *1895:A *1937:BEN[15] 0
6 *1895:A *185:10 0.000153139
7 *1895:A *196:12 3.96284e-05
8 *1895:A *211:11 0.000150837
*RES
1 addr_i[6] *1895:A 8.09023 
*END

*D_NET *8 0.000964481
*CONN
*P addr_i[7] I
*I *1903:A I *D sky130_fd_sc_hd__buf_2
*CAP
1 addr_i[7] 0.000366887
2 *1903:A 0.000366887
3 *1903:A data_o[6] 3.03168e-05
4 *1903:A *1863:A 3.03168e-05
5 *1903:A *196:12 4.18203e-05
6 *1903:A *207:10 8.41307e-05
7 *1903:A *210:11 4.4123e-05
*RES
1 addr_i[7] *1903:A 9.34217 
*END

*D_NET *9 0.00106474
*CONN
*P addr_i[8] I
*I *1904:A I *D sky130_fd_sc_hd__buf_2
*CAP
1 addr_i[8] 0.000305898
2 *1904:A 0.000305898
3 *1904:A data_o[7] 7.26399e-05
4 *1904:A *1864:A 3.03168e-05
5 *1904:A *1899:A 0
6 *1904:A *185:10 0.000153139
7 *1904:A *211:11 0.000150837
8 *1904:A *218:12 4.60061e-05
*RES
1 addr_i[8] *1904:A 8.09023 
*END

*D_NET *10 0.00104377
*CONN
*P addr_i[9] I
*I *1830:A I *D sky130_fd_sc_hd__buf_2
*CAP
1 addr_i[9] 0.000280313
2 *1830:A 0.000280313
3 *1830:A data_o[8] 7.61612e-05
4 *1830:A *1865:A 7.32586e-05
5 *1830:A *1937:AD[9] 2.97522e-05
6 *1830:A *185:10 0.000153139
7 *1830:A *211:11 0.000150837
*RES
1 addr_i[9] *1830:A 8.09023 
*END

*D_NET *11 0.000990584
*CONN
*P ben_i[0] I
*I *1831:A I *D sky130_fd_sc_hd__buf_2
*CAP
1 ben_i[0] 0.000345241
2 *1831:A 0.000345241
3 *1831:A *1866:A 3.44492e-05
4 *1831:A *124:8 5.06989e-05
5 *1831:A *205:11 0
6 *1831:A *210:11 0.000177608
7 *1829:A *1831:A 3.73442e-05
*RES
1 ben_i[0] *1831:A 9.49217 
*END

*D_NET *12 0.00109963
*CONN
*P ben_i[10] I
*I *1832:A I *D sky130_fd_sc_hd__buf_2
*CAP
1 ben_i[10] 0.000274303
2 *1832:A 0.000274303
3 *1832:A data_o[9] 7.61612e-05
4 *1832:A *1867:A 7.61612e-05
5 *1832:A *133:8 4.78678e-05
6 *1832:A *185:10 0.00015266
7 *1832:A *204:9 4.77719e-05
8 *1832:A *211:11 0.000150404
*RES
1 ben_i[10] *1832:A 8.09023 
*END

*D_NET *13 0.00109067
*CONN
*P ben_i[11] I
*I *1833:A I *D sky130_fd_sc_hd__clkbuf_4
*CAP
1 ben_i[11] 0.000302898
2 *1833:A 0.000302898
3 *1833:A data_o[10] 3.38381e-05
4 *1833:A *1868:A 3.09356e-05
5 *1833:A *1937:AD[6] 0.000221966
6 *1833:A *134:8 1.9872e-05
7 *1833:A *196:12 8.79797e-05
8 *1833:A *205:15 0
9 *1833:A *210:11 9.02825e-05
*RES
1 ben_i[11] *1833:A 9.94217 
*END

*D_NET *14 0.00099429
*CONN
*P ben_i[12] I
*I *1834:A I *D sky130_fd_sc_hd__clkbuf_4
*CAP
1 ben_i[12] 0.000334211
2 *1834:A 0.000334211
3 *1834:A data_o[11] 0.000115653
4 *1834:A *1869:A 0.000143283
5 *1834:A *137:10 6.69321e-05
6 *1834:A *211:11 0
*RES
1 ben_i[12] *1834:A 6.35483 
*END

*D_NET *15 0.00106888
*CONN
*P ben_i[13] I
*I *1835:A I *D sky130_fd_sc_hd__clkbuf_4
*CAP
1 ben_i[13] 0.000357475
2 *1835:A 0.000357475
3 *1835:A data_o[12] 8.31885e-05
4 *1835:A *1870:A 8.31885e-05
5 *1835:A *1937:DI[13] 0
6 *1835:A *136:8 1.33205e-05
7 *1835:A *211:11 0.000174232
*RES
1 ben_i[13] *1835:A 9.05023 
*END

*D_NET *16 0.000866191
*CONN
*P ben_i[14] I
*I *1836:A I *D sky130_fd_sc_hd__clkbuf_4
*CAP
1 ben_i[14] 0.000333931
2 *1836:A 0.000333931
3 *1836:A data_o[13] 3.73442e-05
4 *1836:A *1871:A 3.73442e-05
5 *1836:A *137:8 4.89295e-05
6 *1836:A *138:10 0
7 *1836:A *210:19 7.47107e-05
*RES
1 ben_i[14] *1836:A 9.32717 
*END

*D_NET *17 0.00113352
*CONN
*P ben_i[15] I
*I *1837:A I *D sky130_fd_sc_hd__clkbuf_4
*CAP
1 ben_i[15] 0.000332019
2 *1837:A 0.000332019
3 *1837:A data_o[14] 0.000119152
4 *1837:A *1872:A 0.000257242
5 *1837:A *1921:A 0
6 *1837:A *1937:DI[14] 7.32371e-06
7 *1837:A *1937:DI[16] 8.57667e-05
*RES
1 ben_i[15] *1837:A 6.86483 
*END

*D_NET *18 0.000834428
*CONN
*P ben_i[16] I
*I *1838:A I *D sky130_fd_sc_hd__buf_2
*CAP
1 ben_i[16] 0.000317925
2 *1838:A 0.000317925
3 *1838:A data_o[15] 7.40915e-05
4 *1838:A *1874:A 7.56395e-05
5 *1838:A *1937:BEN[16] 4.88478e-05
*RES
1 ben_i[16] *1838:A 8.48197 
*END

*D_NET *19 0.000809269
*CONN
*P ben_i[17] I
*I *1839:A I *D sky130_fd_sc_hd__clkbuf_2
*CAP
1 ben_i[17] 0.00034225
2 *1839:A 0.00034225
3 *1839:A data_o[16] 5.05583e-05
4 *1839:A *1875:A 5.89684e-05
5 *1839:A *1937:BEN[17] 1.52418e-05
*RES
1 ben_i[17] *1839:A 9.11543 
*END

*D_NET *20 0.000813789
*CONN
*P ben_i[18] I
*I *1841:A I *D sky130_fd_sc_hd__clkbuf_2
*CAP
1 ben_i[18] 0.000250014
2 *1841:A 0.000250014
3 *1841:A data_o[17] 7.69864e-05
4 *1841:A *1876:A 7.40915e-05
5 *1841:A *1937:BEN[18] 0.000162684
*RES
1 ben_i[18] *1841:A 7.77697 
*END

*D_NET *21 0.000847173
*CONN
*P ben_i[19] I
*I *1842:A I *D sky130_fd_sc_hd__clkbuf_2
*CAP
1 ben_i[19] 0.000350011
2 *1842:A 0.000350011
3 *1842:A data_o[18] 5.05583e-05
4 *1842:A *1877:A 4.76633e-05
5 *1842:A *1937:BEN[19] 4.89295e-05
*RES
1 ben_i[19] *1842:A 9.22043 
*END

*D_NET *22 0.000985089
*CONN
*P ben_i[1] I
*I *1843:A I *D sky130_fd_sc_hd__buf_2
*CAP
1 ben_i[1] 0.000351322
2 *1843:A 0.000351322
3 *1843:A *1878:A 3.38381e-05
4 *1843:A *122:12 0
5 *1843:A *144:8 3.30017e-05
6 *1843:A *201:22 8.79797e-05
7 *1843:A *210:11 9.02825e-05
8 *1840:A *1843:A 3.73442e-05
*RES
1 ben_i[1] *1843:A 9.59717 
*END

*D_NET *23 0.000707221
*CONN
*P ben_i[20] I
*I *1844:A I *D sky130_fd_sc_hd__clkbuf_2
*CAP
1 ben_i[20] 0.000308646
2 *1844:A 0.000308646
3 *1844:A data_o[19] 3.73442e-05
4 *1844:A *1879:A 3.73442e-05
5 *1844:A *1937:BEN[20] 1.52418e-05
*RES
1 ben_i[20] *1844:A 8.63717 
*END

*D_NET *24 0.00197956
*CONN
*P ben_i[21] I
*I *1845:A I *D sky130_fd_sc_hd__clkbuf_2
*CAP
1 ben_i[21] 0.000814155
2 *1845:A 0.000814155
3 *1845:A data_o[20] 0.000122665
4 *1845:A data_o[21] 0
5 *1845:A *1880:A 5.05583e-05
6 *1845:A *1937:BEN[21] 0.000178021
*RES
1 ben_i[21] *1845:A 11.4444 
*END

*D_NET *25 0.000722433
*CONN
*P ben_i[22] I
*I *1846:A I *D sky130_fd_sc_hd__clkbuf_2
*CAP
1 ben_i[22] 0.000304485
2 *1846:A 0.000304485
3 *1846:A data_o[21] 5.05583e-05
4 *1846:A *1881:A 4.76633e-05
5 *1846:A *1937:BEN[22] 1.52418e-05
*RES
1 ben_i[22] *1846:A 8.45543 
*END

*D_NET *26 0.00082583
*CONN
*P ben_i[23] I
*I *1847:A I *D sky130_fd_sc_hd__clkbuf_2
*CAP
1 ben_i[23] 0.000337892
2 *1847:A 0.000337892
3 *1847:A data_o[22] 5.05583e-05
4 *1847:A *1882:A 5.05583e-05
5 *1847:A *1937:BEN[23] 4.89295e-05
*RES
1 ben_i[23] *1847:A 9.22043 
*END

*D_NET *27 0.000729257
*CONN
*P ben_i[24] I
*I *1848:A I *D sky130_fd_sc_hd__clkbuf_2
*CAP
1 ben_i[24] 0.000280021
2 *1848:A 0.000280021
3 *1848:A data_o[23] 7.69864e-05
4 *1848:A *1883:A 7.69864e-05
5 *1848:A *1937:BEN[24] 1.52418e-05
*RES
1 ben_i[24] *1848:A 7.77697 
*END

*D_NET *28 0.000857753
*CONN
*P ben_i[25] I
*I *1849:A I *D sky130_fd_sc_hd__buf_2
*CAP
1 ben_i[25] 0.000327611
2 *1849:A 0.000327611
3 *1849:A data_o[24] 7.40915e-05
4 *1849:A *1885:A 7.40915e-05
5 *1849:A *1930:A 3.64998e-06
6 *1849:A *1937:BEN[25] 5.06989e-05
*RES
1 ben_i[25] *1849:A 8.73697 
*END

*D_NET *29 0.000877629
*CONN
*P ben_i[26] I
*I *1850:A I *D sky130_fd_sc_hd__buf_2
*CAP
1 ben_i[26] 0.000350385
2 *1850:A 0.000350385
3 *1850:A data_o[25] 7.69864e-05
4 *1850:A data_o[26] 0
5 *1850:A *1886:A 5.05583e-05
6 *1850:A *1937:BEN[24] 0
7 *1850:A *1937:BEN[26] 4.93142e-05
*RES
1 ben_i[26] *1850:A 8.37697 
*END

*D_NET *30 0.00179404
*CONN
*P ben_i[27] I
*I *1852:A I *D sky130_fd_sc_hd__buf_2
*CAP
1 ben_i[27] 0.000726108
2 *1852:A 0.000726108
3 *1852:A data_o[26] 0.000120534
4 *1852:A *1887:A 7.69864e-05
5 *1852:A *1937:BEN[25] 0.000144306
*RES
1 ben_i[27] *1852:A 9.73443 
*END

*D_NET *31 0.000815349
*CONN
*P ben_i[28] I
*I *1853:A I *D sky130_fd_sc_hd__buf_2
*CAP
1 ben_i[28] 0.00034644
2 *1853:A 0.00034644
3 *1853:A data_o[27] 3.73442e-05
4 *1853:A *1887:A 0
5 *1853:A *1888:A 5.05583e-05
6 *1853:A *154:12 3.45679e-05
*RES
1 ben_i[28] *1853:A 9.05543 
*END

*D_NET *32 0.000906731
*CONN
*P ben_i[29] I
*I *1854:A I *D sky130_fd_sc_hd__buf_2
*CAP
1 ben_i[29] 0.000311018
2 *1854:A 0.000311018
3 *1854:A data_o[28] 7.40915e-05
4 *1854:A *1889:A 7.40915e-05
5 *1854:A *1933:A 5.83121e-06
6 *1854:A *1937:DI[27] 4.60061e-05
7 *1854:A *154:12 6.06899e-05
8 *1854:A *155:12 2.39856e-05
*RES
1 ben_i[29] *1854:A 8.73697 
*END

*D_NET *33 0.0010448
*CONN
*P ben_i[2] I
*I *1855:A I *D sky130_fd_sc_hd__buf_2
*CAP
1 ben_i[2] 0.000328823
2 *1855:A 0.000328823
3 *1855:A data_o[2] 0
4 *1855:A *1890:A 3.03168e-05
5 *1855:A *121:24 7.70938e-05
6 *1855:A *156:8 3.30017e-05
7 *1855:A *211:11 0.000173484
8 *1851:A *1855:A 7.32586e-05
*RES
1 ben_i[2] *1855:A 8.34523 
*END

*D_NET *34 0.000869284
*CONN
*P ben_i[30] I
*I *1856:A I *D sky130_fd_sc_hd__buf_2
*CAP
1 ben_i[30] 0.000304124
2 *1856:A 0.000304124
3 *1856:A data_o[29] 4.76633e-05
4 *1856:A *1889:A 0
5 *1856:A *1891:A 7.69864e-05
6 *1856:A *154:12 8.56869e-05
7 *1856:A *157:12 5.06989e-05
*RES
1 ben_i[30] *1856:A 8.37697 
*END

*D_NET *35 0.000871284
*CONN
*P ben_i[31] I
*I *1857:A I *D sky130_fd_sc_hd__buf_2
*CAP
1 ben_i[31] 0.000258489
2 *1857:A 0.000258489
3 *1857:A data_o[30] 7.56395e-05
4 *1857:A data_o[31] 0
5 *1857:A *1892:A 5.05583e-05
6 *1857:A *1937:BEN[28] 9.38785e-05
7 *1857:A *154:12 9.9123e-05
8 *1857:A *158:12 3.51072e-05
*RES
1 ben_i[31] *1857:A 8.63197 
*END

*D_NET *36 0.00107121
*CONN
*P ben_i[3] I
*I *1858:A I *D sky130_fd_sc_hd__buf_2
*CAP
1 ben_i[3] 0.000322911
2 *1858:A 0.000322911
3 *1858:A *1893:A 6.97373e-05
4 *1858:A *121:24 6.80182e-05
5 *1858:A *164:22 0.000108647
6 *1858:A *211:11 0.000106344
7 *1862:A *1858:A 7.26399e-05
*RES
1 ben_i[3] *1858:A 8.45023 
*END

*D_NET *37 0.00102149
*CONN
*P ben_i[4] I
*I *1859:A I *D sky130_fd_sc_hd__buf_2
*CAP
1 ben_i[4] 0.00030685
2 *1859:A 0.00030685
3 *1859:A *1894:A 7.26399e-05
4 *1859:A *1937:BEN[4] 2.97522e-05
5 *1859:A *164:22 5.98118e-05
6 *1859:A *211:11 0.000172944
7 *1873:A *1859:A 7.26399e-05
*RES
1 ben_i[4] *1859:A 8.34523 
*END

*D_NET *38 0.00110119
*CONN
*P ben_i[5] I
*I *1860:A I *D sky130_fd_sc_hd__clkbuf_2
*CAP
1 ben_i[5] 0.000333511
2 *1860:A 0.000333511
3 *1860:A *1896:A 3.03245e-05
4 *1860:A *1937:BEN[5] 1.33205e-05
5 *1860:A *122:24 0.000178947
6 *1860:A *210:11 0.00018125
7 *1884:A *1860:A 3.03245e-05
*RES
1 ben_i[5] *1860:A 9.50717 
*END

*D_NET *39 0.00116227
*CONN
*P ben_i[6] I
*I *1861:A I *D sky130_fd_sc_hd__buf_2
*CAP
1 ben_i[6] 0.000357638
2 *1861:A 0.000357638
3 *1861:A *1897:A 7.19117e-05
4 *1861:A *162:12 4.60123e-05
5 *1861:A *185:10 0.000129365
6 *1861:A *211:11 0.000127062
7 *1895:A *1861:A 7.26475e-05
*RES
1 ben_i[6] *1861:A 8.45023 
*END

*D_NET *40 0.00108908
*CONN
*P ben_i[7] I
*I *1863:A I *D sky130_fd_sc_hd__buf_2
*CAP
1 ben_i[7] 0.000379194
2 *1863:A 0.000379194
3 *1863:A data_o[6] 0
4 *1863:A *1898:A 6.97373e-05
5 *1863:A *185:10 0.000108647
6 *1863:A *204:17 1.56428e-05
7 *1863:A *211:11 0.000106344
8 *1903:A *1863:A 3.03168e-05
*RES
1 ben_i[7] *1863:A 8.45023 
*END

*D_NET *41 0.000977051
*CONN
*P ben_i[8] I
*I *1864:A I *D sky130_fd_sc_hd__buf_2
*CAP
1 ben_i[8] 0.000372763
2 *1864:A 0.000372763
3 *1864:A *1899:A 3.03168e-05
4 *1864:A *165:16 2.91701e-05
5 *1864:A *196:12 6.49e-05
6 *1864:A *200:16 9.61784e-06
7 *1864:A *210:11 6.72027e-05
8 *1904:A *1864:A 3.03168e-05
*RES
1 ben_i[8] *1864:A 9.59717 
*END

*D_NET *42 0.0011477
*CONN
*P ben_i[9] I
*I *1865:A I *D sky130_fd_sc_hd__buf_2
*CAP
1 ben_i[9] 0.0003291
2 *1865:A 0.0003291
3 *1865:A *1900:A 4.36374e-05
4 *1865:A *166:10 4.56156e-05
5 *1865:A *185:10 0.000164648
6 *1865:A *211:11 0.00016234
7 *1830:A *1865:A 7.32586e-05
*RES
1 ben_i[9] *1865:A 8.34523 
*END

*D_NET *43 0.0270379
*CONN
*P clk_i I
*I *1937:CLKin I *D CF_SRAM_1024x32
*CAP
1 clk_i 0.00129147
2 *1937:CLKin 0.000895358
3 *43:13 0.00556362
4 *43:11 0.00595973
5 *1937:CLKin *1937:DI[17] 0.000561657
6 *43:11 *1901:A 0.000190481
7 *43:11 *1937:EN 0
8 *43:13 *134:10 0.00522282
9 *43:13 *136:10 0.00237088
10 *43:13 *137:18 0.00498183
11 *43:13 *144:16 0
*RES
1 clk_i *43:11 3.04093 
2 *43:11 *43:13 126.202 
3 *43:13 *1937:CLKin 19.055 
*END

*D_NET *44 0.000952079
*CONN
*P data_i[0] I
*I *1866:A I *D sky130_fd_sc_hd__buf_2
*CAP
1 data_i[0] 0.000320187
2 *1866:A 0.000320187
3 *1866:A data_o[0] 7.61535e-05
4 *1866:A *167:8 5.06989e-05
5 *1866:A *211:11 0.000150404
6 *1831:A *1866:A 3.44492e-05
*RES
1 data_i[0] *1866:A 8.09023 
*END

*D_NET *45 0.00108222
*CONN
*P data_i[10] I
*I *1867:A I *D sky130_fd_sc_hd__buf_2
*CAP
1 data_i[10] 0.000271697
2 *1867:A 0.000271697
3 *1867:A data_o[10] 7.32586e-05
4 *1867:A *168:8 4.59354e-05
5 *1867:A *185:10 0.000172886
6 *1867:A *211:11 0.000170583
7 *1832:A *1867:A 7.61612e-05
*RES
1 data_i[10] *1867:A 8.34523 
*END

*D_NET *46 0.00106939
*CONN
*P data_i[11] I
*I *1868:A I *D sky130_fd_sc_hd__buf_2
*CAP
1 data_i[11] 0.00030554
2 *1868:A 0.00030554
3 *1868:A data_o[10] 0
4 *1868:A data_o[11] 7.83356e-05
5 *1868:A *169:8 5.06989e-05
6 *1868:A *185:10 0.000150299
7 *1868:A *211:11 0.000148043
8 *1833:A *1868:A 3.09356e-05
*RES
1 data_i[11] *1868:A 8.09023 
*END

*D_NET *47 0.000976111
*CONN
*P data_i[12] I
*I *1869:A I *D sky130_fd_sc_hd__clkbuf_4
*CAP
1 data_i[12] 0.000315552
2 *1869:A 0.000315552
3 *1869:A data_o[12] 0.000109617
4 *1869:A *137:10 9.21075e-05
5 *1869:A *211:11 0
6 *1834:A *1869:A 0.000143283
*RES
1 data_i[12] *1869:A 6.86483 
*END

*D_NET *48 0.00103708
*CONN
*P data_i[13] I
*I *1870:A I *D sky130_fd_sc_hd__clkbuf_4
*CAP
1 data_i[13] 0.000367628
2 *1870:A 0.000367628
3 *1870:A data_o[12] 0
4 *1870:A data_o[13] 4.76633e-05
5 *1870:A *1937:DI[13] 0.000101571
6 *1870:A *137:10 6.94043e-05
7 *1835:A *1870:A 8.31885e-05
*RES
1 data_i[13] *1870:A 6.35483 
*END

*D_NET *49 0.00110948
*CONN
*P data_i[14] I
*I *1871:A I *D sky130_fd_sc_hd__clkbuf_4
*CAP
1 data_i[14] 0.00046282
2 *1871:A 0.00046282
3 *1871:A data_o[13] 0
4 *1871:A data_o[14] 0.000119152
5 *1871:A *1937:DI[14] 2.73469e-05
6 *1871:A *211:11 0
7 *1836:A *1871:A 3.73442e-05
*RES
1 data_i[14] *1871:A 6.96983 
*END

*D_NET *50 0.00237149
*CONN
*P data_i[15] I
*I *1872:A I *D sky130_fd_sc_hd__clkbuf_4
*CAP
1 data_i[15] 0.00099155
2 *1872:A 0.00099155
3 *1872:A data_o[15] 3.07371e-05
4 *1872:A *1921:A 0.000100407
5 *1872:A *1937:DI[14] 0
6 *1837:A *1872:A 0.000257242
*RES
1 data_i[15] *1872:A 10.1477 
*END

*D_NET *51 0.000779346
*CONN
*P data_i[16] I
*I *1874:A I *D sky130_fd_sc_hd__clkbuf_2
*CAP
1 data_i[16] 0.00031336
2 *1874:A 0.00031336
3 *1874:A data_o[16] 7.69864e-05
4 *1838:A *1874:A 7.56395e-05
*RES
1 data_i[16] *1874:A 8.28697 
*END

*D_NET *52 0.000797951
*CONN
*P data_i[17] I
*I *1875:A I *D sky130_fd_sc_hd__clkbuf_2
*CAP
1 data_i[17] 0.000309734
2 *1875:A 0.000309734
3 *1875:A data_o[16] 0
4 *1875:A data_o[17] 7.05855e-05
5 *1875:A *1937:DI[17] 4.89295e-05
6 *1839:A *1875:A 5.89684e-05
*RES
1 data_i[17] *1875:A 7.77697 
*END

*D_NET *53 0.000779486
*CONN
*P data_i[18] I
*I *1876:A I *D sky130_fd_sc_hd__clkbuf_2
*CAP
1 data_i[18] 0.000317482
2 *1876:A 0.000317482
3 *1876:A data_o[18] 5.05583e-05
4 *1876:A *1937:DI[18] 1.9872e-05
5 *1841:A *1876:A 7.40915e-05
*RES
1 data_i[18] *1876:A 8.28697 
*END

*D_NET *54 0.000830519
*CONN
*P data_i[19] I
*I *1877:A I *D sky130_fd_sc_hd__clkbuf_2
*CAP
1 data_i[19] 0.000311208
2 *1877:A 0.000311208
3 *1877:A data_o[19] 7.34804e-05
4 *1877:A *1937:DI[19] 8.696e-05
5 *1842:A *1877:A 4.76633e-05
*RES
1 data_i[19] *1877:A 7.77697 
*END

*D_NET *55 0.000958205
*CONN
*P data_i[1] I
*I *1878:A I *D sky130_fd_sc_hd__buf_2
*CAP
1 data_i[1] 0.000334525
2 *1878:A 0.000334525
3 *1878:A data_o[1] 7.19117e-05
4 *1878:A *179:20 3.30017e-05
5 *1878:A *211:11 0.000150404
6 *1840:A *1878:A 0
7 *1843:A *1878:A 3.38381e-05
*RES
1 data_i[1] *1878:A 8.09023 
*END

*D_NET *56 0.000880342
*CONN
*P data_i[20] I
*I *1879:A I *D sky130_fd_sc_hd__clkbuf_2
*CAP
1 data_i[20] 0.000376832
2 *1879:A 0.000376832
3 *1879:A data_o[19] 0
4 *1879:A data_o[20] 7.40915e-05
5 *1879:A *1937:DI[20] 1.52418e-05
6 *1844:A *1879:A 3.73442e-05
*RES
1 data_i[20] *1879:A 8.54197 
*END

*D_NET *57 0.000741448
*CONN
*P data_i[21] I
*I *1880:A I *D sky130_fd_sc_hd__clkbuf_2
*CAP
1 data_i[21] 0.000297325
2 *1880:A 0.000297325
3 *1880:A data_o[21] 4.76633e-05
4 *1880:A *1937:DI[21] 4.85763e-05
5 *1845:A *1880:A 5.05583e-05
*RES
1 data_i[21] *1880:A 8.35043 
*END

*D_NET *58 0.000818652
*CONN
*P data_i[22] I
*I *1881:A I *D sky130_fd_sc_hd__clkbuf_2
*CAP
1 data_i[22] 0.000332652
2 *1881:A 0.000332652
3 *1881:A data_o[21] 0
4 *1881:A data_o[22] 7.69864e-05
5 *1881:A *1937:DI[22] 2.86975e-05
6 *1846:A *1881:A 4.76633e-05
*RES
1 data_i[22] *1881:A 8.28697 
*END

*D_NET *59 0.000796047
*CONN
*P data_i[23] I
*I *1882:A I *D sky130_fd_sc_hd__clkbuf_2
*CAP
1 data_i[23] 0.000328383
2 *1882:A 0.000328383
3 *1882:A data_o[22] 0
4 *1882:A data_o[23] 7.34804e-05
5 *1882:A *1937:DI[23] 1.52418e-05
6 *1847:A *1882:A 5.05583e-05
*RES
1 data_i[23] *1882:A 7.77697 
*END

*D_NET *60 0.000893656
*CONN
*P data_i[24] I
*I *1883:A I *D sky130_fd_sc_hd__clkbuf_2
*CAP
1 data_i[24] 0.000327809
2 *1883:A 0.000327809
3 *1883:A data_o[24] 7.40915e-05
4 *1883:A *1937:DI[24] 8.696e-05
5 *1848:A *1883:A 7.69864e-05
*RES
1 data_i[24] *1883:A 8.54197 
*END

*D_NET *61 0.000757436
*CONN
*P data_i[25] I
*I *1885:A I *D sky130_fd_sc_hd__clkbuf_2
*CAP
1 data_i[25] 0.000296231
2 *1885:A 0.000296231
3 *1885:A data_o[25] 7.56395e-05
4 *1885:A *1937:DI[25] 1.52418e-05
5 *1849:A *1885:A 7.40915e-05
*RES
1 data_i[25] *1885:A 7.88197 
*END

*D_NET *62 0.000751125
*CONN
*P data_i[26] I
*I *1886:A I *D sky130_fd_sc_hd__clkbuf_2
*CAP
1 data_i[26] 0.000310655
2 *1886:A 0.000310655
3 *1886:A data_o[26] 5.05583e-05
4 *1886:A *1937:DI[26] 2.86975e-05
5 *1850:A *1886:A 5.05583e-05
*RES
1 data_i[26] *1886:A 8.86043 
*END

*D_NET *63 0.000767868
*CONN
*P data_i[27] I
*I *1887:A I *D sky130_fd_sc_hd__clkbuf_2
*CAP
1 data_i[27] 0.000326769
2 *1887:A 0.000326769
3 *1887:A data_o[27] 3.73442e-05
4 *1887:A *1937:BEN[27] 0
5 *1852:A *1887:A 7.69864e-05
6 *1853:A *1887:A 0
*RES
1 data_i[27] *1887:A 7.77697 
*END

*D_NET *64 0.000928018
*CONN
*P data_i[28] I
*I *1888:A I *D sky130_fd_sc_hd__buf_2
*CAP
1 data_i[28] 0.000341785
2 *1888:A 0.000341785
3 *1888:A data_o[28] 7.40915e-05
4 *1888:A *1937:DI[28] 4.41506e-05
5 *1888:A *154:12 7.5648e-05
6 *1853:A *1888:A 5.05583e-05
*RES
1 data_i[28] *1888:A 8.63197 
*END

*D_NET *65 0.0008404
*CONN
*P data_i[29] I
*I *1889:A I *D sky130_fd_sc_hd__buf_2
*CAP
1 data_i[29] 0.000299363
2 *1889:A 0.000299363
3 *1889:A data_o[29] 5.05583e-05
4 *1889:A *1937:DI[29] 3.1876e-05
5 *1889:A *154:12 8.51478e-05
6 *1854:A *1889:A 7.40915e-05
7 *1856:A *1889:A 0
*RES
1 data_i[29] *1889:A 8.37697 
*END

*D_NET *66 0.000980919
*CONN
*P data_i[2] I
*I *1890:A I *D sky130_fd_sc_hd__buf_2
*CAP
1 data_i[2] 0.000316993
2 *1890:A 0.000316993
3 *1890:A data_o[2] 3.03168e-05
4 *1890:A *1937:BEN[7] 8.81641e-05
5 *1890:A *191:16 1.9872e-05
6 *1890:A *201:22 8.79797e-05
7 *1890:A *210:11 9.02825e-05
8 *1855:A *1890:A 3.03168e-05
*RES
1 data_i[2] *1890:A 9.34217 
*END

*D_NET *67 0.000867971
*CONN
*P data_i[30] I
*I *1891:A I *D sky130_fd_sc_hd__buf_2
*CAP
1 data_i[30] 0.000287868
2 *1891:A 0.000287868
3 *1891:A data_o[30] 7.69864e-05
4 *1891:A *1937:DI[30] 5.06989e-05
5 *1891:A *154:12 8.7562e-05
6 *1856:A *1891:A 7.69864e-05
*RES
1 data_i[30] *1891:A 8.73697 
*END

*D_NET *68 0.000786544
*CONN
*P data_i[31] I
*I *1892:A I *D sky130_fd_sc_hd__buf_2
*CAP
1 data_i[31] 0.000326608
2 *1892:A 0.000326608
3 *1892:A data_o[31] 4.76633e-05
4 *1892:A *154:12 0
5 *1892:A *193:12 3.51072e-05
6 *1857:A *1892:A 5.05583e-05
*RES
1 data_i[31] *1892:A 9.05543 
*END

*D_NET *69 0.00105669
*CONN
*P data_i[3] I
*I *1893:A I *D sky130_fd_sc_hd__buf_2
*CAP
1 data_i[3] 0.00032538
2 *1893:A 0.00032538
3 *1893:A data_o[3] 3.03168e-05
4 *1893:A *164:22 0.000112418
5 *1893:A *194:10 4.60061e-05
6 *1893:A *211:11 0.000147456
7 *1858:A *1893:A 6.97373e-05
8 *1873:A *1893:A 0
*RES
1 data_i[3] *1893:A 8.09023 
*END

*D_NET *70 0.000972539
*CONN
*P data_i[4] I
*I *1894:A I *D sky130_fd_sc_hd__clkbuf_2
*CAP
1 data_i[4] 0.000334204
2 *1894:A 0.000334204
3 *1894:A data_o[4] 3.03168e-05
4 *1894:A *1937:DI[4] 4.66108e-05
5 *1894:A *164:22 0.000102819
6 *1894:A *201:16 1.16578e-05
7 *1894:A *211:11 4.00869e-05
8 *1859:A *1894:A 7.26399e-05
9 *1884:A *1894:A 0
*RES
1 data_i[4] *1894:A 7.02177 
*END

*D_NET *71 0.00105671
*CONN
*P data_i[5] I
*I *1896:A I *D sky130_fd_sc_hd__clkbuf_2
*CAP
1 data_i[5] 0.000298962
2 *1896:A 0.000298962
3 *1896:A *1937:BEN[15] 0.000133794
4 *1896:A *1937:DI[5] 4.77719e-05
5 *1896:A *185:10 0.000124363
6 *1896:A *211:11 0.000122534
7 *1860:A *1896:A 3.03245e-05
8 *1884:A *1896:A 0
*RES
1 data_i[5] *1896:A 7.49023 
*END

*D_NET *72 0.00107546
*CONN
*P data_i[6] I
*I *1897:A I *D sky130_fd_sc_hd__buf_2
*CAP
1 data_i[6] 0.00029159
2 *1897:A 0.00029159
3 *1897:A data_o[6] 7.1293e-05
4 *1897:A *185:10 0.00015266
5 *1897:A *198:22 4.60123e-05
6 *1897:A *211:11 0.000150404
7 *1861:A *1897:A 7.19117e-05
*RES
1 data_i[6] *1897:A 8.09023 
*END

*D_NET *73 0.00108573
*CONN
*P data_i[7] I
*I *1898:A I *D sky130_fd_sc_hd__buf_2
*CAP
1 data_i[7] 0.000297814
2 *1898:A 0.000297814
3 *1898:A data_o[7] 7.1293e-05
4 *1898:A *185:10 0.00015266
5 *1898:A *199:14 4.60123e-05
6 *1898:A *211:11 0.000150404
7 *1863:A *1898:A 6.97373e-05
*RES
1 data_i[7] *1898:A 8.09023 
*END

*D_NET *74 0.00112034
*CONN
*P data_i[8] I
*I *1899:A I *D sky130_fd_sc_hd__buf_2
*CAP
1 data_i[8] 0.00032805
2 *1899:A 0.00032805
3 *1899:A data_o[8] 6.83904e-05
4 *1899:A *185:10 0.000150299
5 *1899:A *200:16 6.71882e-05
6 *1899:A *211:11 0.000148043
7 *1864:A *1899:A 3.03168e-05
8 *1904:A *1899:A 0
*RES
1 data_i[8] *1899:A 8.09023 
*END

*D_NET *75 0.00218963
*CONN
*P data_i[9] I
*I *1900:A I *D sky130_fd_sc_hd__buf_2
*CAP
1 data_i[9] 0.000925523
2 *1900:A 0.000925523
3 *1900:A data_o[9] 0.000138378
4 *1900:A *124:10 3.19349e-05
5 *1900:A *133:10 1.94723e-05
6 *1900:A *209:11 0.000105158
7 *1865:A *1900:A 4.36374e-05
*RES
1 data_i[9] *1900:A 9.13157 
*END

*D_NET *76 0.000734018
*CONN
*P data_o[0] O
*I *1914:X O *D sky130_fd_sc_hd__buf_2
*CAP
1 data_o[0] 0.000242705
2 *1914:X 0.000242705
3 data_o[0] *206:17 5.68166e-05
4 data_o[0] *211:11 0
5 *1840:A data_o[0] 0.000115638
6 *1866:A data_o[0] 7.61535e-05
*RES
1 *1914:X data_o[0] 5.92503 
*END

*D_NET *77 0.000795454
*CONN
*P data_o[10] O
*I *1915:X O *D sky130_fd_sc_hd__buf_2
*CAP
1 data_o[10] 0.000297992
2 *1915:X 0.000297992
3 data_o[10] *1937:AD[9] 3.78856e-05
4 data_o[10] *185:10 5.44872e-05
5 *1833:A data_o[10] 3.38381e-05
6 *1867:A data_o[10] 7.32586e-05
7 *1868:A data_o[10] 0
*RES
1 *1915:X data_o[10] 5.92503 
*END

*D_NET *78 0.000738597
*CONN
*P data_o[11] O
*I *1916:X O *D sky130_fd_sc_hd__buf_2
*CAP
1 data_o[11] 0.000244807
2 *1916:X 0.000244807
3 data_o[11] *185:10 5.49946e-05
4 *1834:A data_o[11] 0.000115653
5 *1868:A data_o[11] 7.83356e-05
*RES
1 *1916:X data_o[11] 5.92503 
*END

*D_NET *79 0.000691244
*CONN
*P data_o[12] O
*I *1917:X O *D sky130_fd_sc_hd__clkbuf_4
*CAP
1 data_o[12] 0.000226907
2 *1917:X 0.000226907
3 data_o[12] *1937:DI[13] 6.16226e-06
4 data_o[12] *137:10 0
5 data_o[12] *211:11 3.84636e-05
6 *1835:A data_o[12] 8.31885e-05
7 *1869:A data_o[12] 0.000109617
8 *1870:A data_o[12] 0
*RES
1 *1917:X data_o[12] 6.31677 
*END

*D_NET *80 0.000763
*CONN
*P data_o[13] O
*I *1918:X O *D sky130_fd_sc_hd__clkbuf_4
*CAP
1 data_o[13] 0.000316935
2 *1918:X 0.000316935
3 data_o[13] *138:10 0
4 data_o[13] *210:19 4.4123e-05
5 *1836:A data_o[13] 3.73442e-05
6 *1870:A data_o[13] 4.76633e-05
7 *1871:A data_o[13] 0
*RES
1 *1918:X data_o[13] 7.85543 
*END

*D_NET *81 0.000681457
*CONN
*P data_o[14] O
*I *1919:X O *D sky130_fd_sc_hd__buf_2
*CAP
1 data_o[14] 0.000217028
2 *1919:X 0.000217028
3 data_o[14] *1937:DI[16] 9.09788e-06
4 data_o[14] *211:11 0
5 *1837:A data_o[14] 0.000119152
6 *1871:A data_o[14] 0.000119152
*RES
1 *1919:X data_o[14] 5.92503 
*END

*D_NET *82 0.000748094
*CONN
*P data_o[15] O
*I *1920:X O *D sky130_fd_sc_hd__buf_2
*CAP
1 data_o[15] 0.00026935
2 *1920:X 0.00026935
3 data_o[15] *1937:DI[16] 0.000104566
4 data_o[15] *211:11 0
5 *1838:A data_o[15] 7.40915e-05
6 *1872:A data_o[15] 3.07371e-05
*RES
1 *1920:X data_o[15] 5.92503 
*END

*D_NET *83 0.00067564
*CONN
*P data_o[16] O
*I *1921:X O *D sky130_fd_sc_hd__buf_2
*CAP
1 data_o[16] 0.000274048
2 *1921:X 0.000274048
3 *1839:A data_o[16] 5.05583e-05
4 *1874:A data_o[16] 7.69864e-05
5 *1875:A data_o[16] 0
*RES
1 *1921:X data_o[16] 5.92503 
*END

*D_NET *84 0.00075718
*CONN
*P data_o[17] O
*I *1922:X O *D sky130_fd_sc_hd__clkbuf_4
*CAP
1 data_o[17] 0.000295924
2 *1922:X 0.000295924
3 data_o[17] *1937:BEN[18] 1.77595e-05
4 *1841:A data_o[17] 7.69864e-05
5 *1875:A data_o[17] 7.05855e-05
*RES
1 *1922:X data_o[17] 6.82677 
*END

*D_NET *85 0.000697792
*CONN
*P data_o[18] O
*I *1923:X O *D sky130_fd_sc_hd__clkbuf_4
*CAP
1 data_o[18] 0.000298338
2 *1923:X 0.000298338
3 *1842:A data_o[18] 5.05583e-05
4 *1876:A data_o[18] 5.05583e-05
*RES
1 *1923:X data_o[18] 7.85543 
*END

*D_NET *86 0.000724511
*CONN
*P data_o[19] O
*I *1924:X O *D sky130_fd_sc_hd__buf_2
*CAP
1 data_o[19] 0.000278435
2 *1924:X 0.000278435
3 data_o[19] *1924:A 5.68166e-05
4 *1844:A data_o[19] 3.73442e-05
5 *1877:A data_o[19] 7.34804e-05
6 *1879:A data_o[19] 0
*RES
1 *1924:X data_o[19] 5.92503 
*END

*D_NET *87 0.00075662
*CONN
*P data_o[1] O
*I *1925:X O *D sky130_fd_sc_hd__clkbuf_4
*CAP
1 data_o[1] 0.000267353
2 *1925:X 0.000267353
3 data_o[1] *206:17 3.53776e-05
4 data_o[1] *211:11 3.84636e-05
5 *1851:A data_o[1] 7.61612e-05
6 *1878:A data_o[1] 7.19117e-05
*RES
1 *1925:X data_o[1] 6.31677 
*END

*D_NET *88 0.000690532
*CONN
*P data_o[20] O
*I *1926:X O *D sky130_fd_sc_hd__buf_2
*CAP
1 data_o[20] 0.000246888
2 *1926:X 0.000246888
3 *1845:A data_o[20] 0.000122665
4 *1879:A data_o[20] 7.40915e-05
*RES
1 *1926:X data_o[20] 5.92503 
*END

*D_NET *89 0.000719477
*CONN
*P data_o[21] O
*I *1927:X O *D sky130_fd_sc_hd__buf_2
*CAP
1 data_o[21] 0.000310628
2 *1927:X 0.000310628
3 *1845:A data_o[21] 0
4 *1846:A data_o[21] 5.05583e-05
5 *1880:A data_o[21] 4.76633e-05
6 *1881:A data_o[21] 0
*RES
1 *1927:X data_o[21] 5.92503 
*END

*D_NET *90 0.000709404
*CONN
*P data_o[22] O
*I *1928:X O *D sky130_fd_sc_hd__buf_2
*CAP
1 data_o[22] 0.000267758
2 *1928:X 0.000267758
3 data_o[22] *1928:A 4.63425e-05
4 *1847:A data_o[22] 5.05583e-05
5 *1881:A data_o[22] 7.69864e-05
6 *1882:A data_o[22] 0
*RES
1 *1928:X data_o[22] 5.92503 
*END

*D_NET *91 0.000703117
*CONN
*P data_o[23] O
*I *1929:X O *D sky130_fd_sc_hd__clkbuf_4
*CAP
1 data_o[23] 0.000276325
2 *1929:X 0.000276325
3 data_o[23] *1937:BEN[23] 0
4 *1848:A data_o[23] 7.69864e-05
5 *1882:A data_o[23] 7.34804e-05
*RES
1 *1929:X data_o[23] 6.31677 
*END

*D_NET *92 0.000688772
*CONN
*P data_o[24] O
*I *1930:X O *D sky130_fd_sc_hd__buf_2
*CAP
1 data_o[24] 0.000270294
2 *1930:X 0.000270294
3 *1849:A data_o[24] 7.40915e-05
4 *1883:A data_o[24] 7.40915e-05
*RES
1 *1930:X data_o[24] 5.92503 
*END

*D_NET *93 0.00068022
*CONN
*P data_o[25] O
*I *1931:X O *D sky130_fd_sc_hd__buf_2
*CAP
1 data_o[25] 0.000263797
2 *1931:X 0.000263797
3 *1850:A data_o[25] 7.69864e-05
4 *1885:A data_o[25] 7.56395e-05
*RES
1 *1931:X data_o[25] 5.92503 
*END

*D_NET *94 0.000732201
*CONN
*P data_o[26] O
*I *1932:X O *D sky130_fd_sc_hd__buf_2
*CAP
1 data_o[26] 0.000280555
2 *1932:X 0.000280555
3 *1850:A data_o[26] 0
4 *1852:A data_o[26] 0.000120534
5 *1886:A data_o[26] 5.05583e-05
*RES
1 *1932:X data_o[26] 5.92503 
*END

*D_NET *95 0.00070873
*CONN
*P data_o[27] O
*I *1933:X O *D sky130_fd_sc_hd__buf_2
*CAP
1 data_o[27] 0.000317021
2 *1933:X 0.000317021
3 data_o[27] *1937:DI[27] 0
4 *1853:A data_o[27] 3.73442e-05
5 *1887:A data_o[27] 3.73442e-05
*RES
1 *1933:X data_o[27] 8.03717 
*END

*D_NET *96 0.000768363
*CONN
*P data_o[28] O
*I *1934:X O *D sky130_fd_sc_hd__clkbuf_4
*CAP
1 data_o[28] 0.00018345
2 *1934:X 0.00018345
3 data_o[28] *1937:DI[27] 0.00012429
4 data_o[28] *154:12 0.000128991
5 *1854:A data_o[28] 7.40915e-05
6 *1888:A data_o[28] 7.40915e-05
*RES
1 *1934:X data_o[28] 6.12177 
*END

*D_NET *97 0.000712814
*CONN
*P data_o[29] O
*I *1935:X O *D sky130_fd_sc_hd__clkbuf_4
*CAP
1 data_o[29] 0.000307296
2 *1935:X 0.000307296
3 data_o[29] *154:12 0
4 *1856:A data_o[29] 4.76633e-05
5 *1889:A data_o[29] 5.05583e-05
*RES
1 *1935:X data_o[29] 7.85543 
*END

*D_NET *98 0.000890018
*CONN
*P data_o[2] O
*I *1936:X O *D sky130_fd_sc_hd__buf_2
*CAP
1 data_o[2] 0.000284813
2 *1936:X 0.000284813
3 data_o[2] *121:24 0.000101599
4 data_o[2] *191:16 7.01359e-05
5 data_o[2] *206:17 1.88815e-05
6 *1855:A data_o[2] 0
7 *1862:A data_o[2] 9.94595e-05
8 *1890:A data_o[2] 3.03168e-05
*RES
1 *1936:X data_o[2] 5.92503 
*END

*D_NET *99 0.000711159
*CONN
*P data_o[30] O
*I *1905:X O *D sky130_fd_sc_hd__buf_2
*CAP
1 data_o[30] 0.000241728
2 *1905:X 0.000241728
3 data_o[30] *1937:DI[30] 2.30258e-05
4 data_o[30] *154:12 5.2052e-05
5 *1857:A data_o[30] 7.56395e-05
6 *1891:A data_o[30] 7.69864e-05
*RES
1 *1905:X data_o[30] 5.92503 
*END

*D_NET *100 0.000717386
*CONN
*P data_o[31] O
*I *1906:X O *D sky130_fd_sc_hd__buf_2
*CAP
1 data_o[31] 0.000317172
2 *1906:X 0.000317172
3 data_o[31] *1937:DI[30] 3.53776e-05
4 *1857:A data_o[31] 0
5 *1892:A data_o[31] 4.76633e-05
*RES
1 *1906:X data_o[31] 5.92503 
*END

*D_NET *101 0.000883546
*CONN
*P data_o[3] O
*I *1907:X O *D sky130_fd_sc_hd__clkbuf_4
*CAP
1 data_o[3] 0.000302363
2 *1907:X 0.000302363
3 data_o[3] *201:22 0.000109393
4 data_o[3] *210:11 0.000111695
5 *1873:A data_o[3] 2.74143e-05
6 *1893:A data_o[3] 3.03168e-05
*RES
1 *1907:X data_o[3] 8.03717 
*END

*D_NET *102 0.000887825
*CONN
*P data_o[4] O
*I *1908:X O *D sky130_fd_sc_hd__buf_2
*CAP
1 data_o[4] 0.000303818
2 *1908:X 0.000303818
3 data_o[4] *122:24 9.88099e-05
4 data_o[4] *200:20 5.53549e-06
5 data_o[4] *201:16 0
6 data_o[4] *210:11 0.000111695
7 *1884:A data_o[4] 3.38305e-05
8 *1894:A data_o[4] 3.03168e-05
*RES
1 *1908:X data_o[4] 8.03717 
*END

*D_NET *103 0.000851852
*CONN
*P data_o[5] O
*I *1909:X O *D sky130_fd_sc_hd__clkbuf_4
*CAP
1 data_o[5] 0.000338479
2 *1909:X 0.000338479
3 data_o[5] *1937:BEN[15] 5.86253e-05
4 data_o[5] *122:24 4.18203e-05
5 data_o[5] *210:11 4.4123e-05
6 *1895:A data_o[5] 3.03245e-05
*RES
1 *1909:X data_o[5] 8.14217 
*END

*D_NET *104 0.000847724
*CONN
*P data_o[6] O
*I *1910:X O *D sky130_fd_sc_hd__buf_2
*CAP
1 data_o[6] 0.000269048
2 *1910:X 0.000269048
3 data_o[6] *164:22 0.000104566
4 data_o[6] *201:16 0.000103451
5 *1863:A data_o[6] 0
6 *1897:A data_o[6] 7.1293e-05
7 *1903:A data_o[6] 3.03168e-05
*RES
1 *1910:X data_o[6] 5.92503 
*END

*D_NET *105 0.000865655
*CONN
*P data_o[7] O
*I *1911:X O *D sky130_fd_sc_hd__buf_2
*CAP
1 data_o[7] 0.000258813
2 *1911:X 0.000258813
3 data_o[7] *201:16 0.000101571
4 data_o[7] *204:17 0.000102525
5 *1898:A data_o[7] 7.1293e-05
6 *1904:A data_o[7] 7.26399e-05
*RES
1 *1911:X data_o[7] 5.92503 
*END

*D_NET *106 0.000968905
*CONN
*P data_o[8] O
*I *1912:X O *D sky130_fd_sc_hd__clkbuf_4
*CAP
1 data_o[8] 0.00026309
2 *1912:X 0.00026309
3 data_o[8] *185:10 0.000150837
4 data_o[8] *201:16 0.000147338
5 *1830:A data_o[8] 7.61612e-05
6 *1899:A data_o[8] 6.83904e-05
*RES
1 *1912:X data_o[8] 6.82677 
*END

*D_NET *107 0.000820547
*CONN
*P data_o[9] O
*I *1913:X O *D sky130_fd_sc_hd__buf_2
*CAP
1 data_o[9] 0.000223224
2 *1913:X 0.000223224
3 data_o[9] *185:10 5.49946e-05
4 data_o[9] *204:17 0.000104566
5 *1832:A data_o[9] 7.61612e-05
6 *1900:A data_o[9] 0.000138378
*RES
1 *1913:X data_o[9] 5.92503 
*END

*D_NET *108 0.000977833
*CONN
*P en_i I
*I *1901:A I *D sky130_fd_sc_hd__clkbuf_4
*CAP
1 en_i 0.000239472
2 *1901:A 0.000239472
3 *1901:A *1902:A 0.000130964
4 *1901:A *1937:EN 5.14369e-05
5 *1901:A *206:13 0.000126008
6 *1901:A *211:11 0
7 *43:11 *1901:A 0.000190481
*RES
1 en_i *1901:A 6.35483 
*END

*D_NET *109 0.00107387
*CONN
*P read_en_i I
*I *1902:A I *D sky130_fd_sc_hd__clkbuf_4
*CAP
1 read_en_i 0.000310433
2 *1902:A 0.000310433
3 *1902:A *1937:EN 5.63198e-05
4 *1902:A *1937:R_WB 5.93714e-05
5 *1902:A *206:13 0.000169001
6 *1902:A *211:11 0
7 *1829:A *1902:A 3.73442e-05
8 *1901:A *1902:A 0.000130964
*RES
1 read_en_i *1902:A 6.86483 
*END

*D_NET *112 0.0262126
*CONN
*I *1937:AD[0] I *D CF_SRAM_1024x32
*I *1829:X O *D sky130_fd_sc_hd__clkbuf_4
*CAP
1 *1937:AD[0] 0.00158171
2 *1829:X 0.000293871
3 *112:10 0.00405858
4 *112:8 0.00277074
5 *1937:AD[0] *1937:AD[1] 1.70201e-05
6 *1937:AD[0] *1937:AD[2] 0
7 *1937:AD[0] *1937:R_WB 9.19832e-05
8 *112:8 *205:9 0.000414991
9 *112:10 *133:10 0.00694841
10 *112:10 *141:18 0
11 *112:10 *169:10 0.00765822
12 *112:10 *170:10 0.000299363
13 *112:10 *173:28 0.00207769
14 *112:10 *209:11 0
*RES
1 *1829:X *112:8 7.5 
2 *112:8 *112:10 97.77 
3 *112:10 *1937:AD[0] 25.3213 
*END

*D_NET *113 0.00685397
*CONN
*I *1937:AD[9] I *D CF_SRAM_1024x32
*I *1830:X O *D sky130_fd_sc_hd__buf_2
*CAP
1 *1937:AD[9] 0.00216378
2 *1830:X 0.00216226
3 *113:17 1.5174e-06
4 *1937:AD[9] *230:DIODE 4.41506e-05
5 *1937:AD[9] *1937:AD[3] 0
6 *1937:AD[9] *1937:AD[7] 0
7 *1937:AD[9] *1937:AD[8] 0.00107787
8 *1937:AD[9] *204:17 0.000335124
9 *1937:AD[9] *206:19 0.00100164
10 *113:17 *1937:AD[3] 0
11 data_o[10] *1937:AD[9] 3.78856e-05
12 *1830:A *1937:AD[9] 2.97522e-05
*RES
1 *1830:X *1937:AD[9] 44.465 
2 *1937:AD[9] *113:17 0.108889 
*END

*D_NET *114 0.00664113
*CONN
*I *1905:A I *D sky130_fd_sc_hd__buf_2
*I *1937:DO[30] O *D CF_SRAM_1024x32
*CAP
1 *1905:A 0.00170714
2 *1937:DO[30] 0.00170714
3 *1905:A *1937:DI[29] 0.000588532
4 *1905:A *1937:DI[30] 0.00181805
5 *1905:A *193:12 0.000820268
*RES
1 *1937:DO[30] *1905:A 46.4475 
*END

*D_NET *115 0.00653762
*CONN
*I *1906:A I *D sky130_fd_sc_hd__buf_2
*I *1937:DO[31] O *D CF_SRAM_1024x32
*CAP
1 *1906:A 0.00191699
2 *1937:DO[31] 0.00191699
3 *1906:A *1937:DI[30] 0.000735847
4 *1906:A *1937:DI[31] 0.00162149
5 *1906:A *193:12 0.000346297
*RES
1 *1937:DO[31] *1906:A 48.152 
*END

*D_NET *116 0.00916778
*CONN
*I *1907:A I *D sky130_fd_sc_hd__clkbuf_4
*I *1937:DO[3] O *D CF_SRAM_1024x32
*CAP
1 *1907:A 0.000947254
2 *1937:DO[3] 0.0018352
3 *116:13 0.00278245
4 *116:13 *1908:A 0.0007944
5 *116:13 *1925:A 0
6 *116:13 *1937:BEN[4] 0.000770382
7 *116:13 *1937:BEN[5] 6.05228e-05
8 *116:13 *1937:DI[3] 0.000348734
9 *116:13 *134:10 0.000746309
10 *116:13 *166:18 0.000251982
11 *116:13 *207:10 0.000630542
*RES
1 *1937:DO[3] *116:13 45.2125 
2 *116:13 *1907:A 12.4 
*END

*D_NET *117 0.00622441
*CONN
*I *1908:A I *D sky130_fd_sc_hd__buf_2
*I *1937:DO[4] O *D CF_SRAM_1024x32
*CAP
1 *1908:A 0.00232979
2 *1937:DO[4] 0.00232979
3 *1908:A *1937:BEN[5] 0.000285203
4 *1908:A *1937:DI[4] 0
5 *1908:A *144:16 4.83002e-05
6 *1908:A *166:18 0.000277806
7 *1908:A *179:20 0.000159109
8 *116:13 *1908:A 0.0007944
*RES
1 *1937:DO[4] *1908:A 41.8775 
*END

*D_NET *118 0.0053828
*CONN
*I *1909:A I *D sky130_fd_sc_hd__clkbuf_4
*I *1937:DO[5] O *D CF_SRAM_1024x32
*CAP
1 *1909:A 0.00202852
2 *1937:DO[5] 0.00202852
3 *1909:A *1937:BEN[4] 0.000615848
4 *1909:A *1937:BEN[5] 0.000298436
5 *1909:A *1937:DI[5] 0
6 *1909:A *136:10 0.000411486
*RES
1 *1937:DO[5] *1909:A 37.7975 
*END

*D_NET *119 0.00890772
*CONN
*I *1910:A I *D sky130_fd_sc_hd__buf_2
*I *1937:DO[6] O *D CF_SRAM_1024x32
*CAP
1 *1910:A 0.00123243
2 *1937:DO[6] 0.00158319
3 *119:33 0.00281561
4 *119:33 *1937:R_WB 0.000135163
5 *119:33 *1937:DI[6] 0
6 *119:33 *152:18 0.000531581
7 *119:33 *156:20 0.000835653
8 *119:33 *174:10 0.000407663
9 *119:33 *194:10 0.00083732
10 *119:33 *198:22 0.000529118
11 *119:33 *216:29 0
*RES
1 *1937:DO[6] *119:33 41.1515 
2 *119:33 *1910:A 16.885 
*END

*D_NET *120 0.0137487
*CONN
*I *1911:A I *D sky130_fd_sc_hd__buf_2
*I *1937:DO[7] O *D CF_SRAM_1024x32
*CAP
1 *1911:A 0.000684982
2 *1937:DO[7] 0.00164374
3 *120:24 0.00232872
4 *120:4 0
5 *1911:A *1937:DI[2] 0.000376596
6 *1911:A *141:18 0.000302312
7 *1911:A *167:24 0.000434566
8 *1911:A *199:14 0.000823835
9 *120:24 *1937:DI[14] 0.000215612
10 *120:24 *1937:DI[7] 0.00208674
11 *120:24 *134:20 0.00067108
12 *120:24 *162:12 0.00185506
13 *120:24 *199:14 0.00232547
*RES
1 *1937:DO[7] *120:4 0.113077 
2 *1937:DO[7] *120:24 49.777 
3 *120:24 *1911:A 21.4575 
*END

*D_NET *121 0.0166282
*CONN
*I *1912:A I *D sky130_fd_sc_hd__clkbuf_4
*I *1937:DO[8] O *D CF_SRAM_1024x32
*CAP
1 *1912:A 0.00121387
2 *1937:DO[8] 0.00214646
3 *121:24 0.00336033
4 *121:4 0
5 *1912:A *191:16 0.00261142
6 *1912:A *204:17 0.000340234
7 *1912:A *206:19 0.00379231
8 *121:24 *1937:DI[8] 0.00180509
9 *121:24 *159:12 0.000122184
10 *121:24 *164:22 0.000559023
11 *121:24 *191:16 0.000194218
12 *121:24 *206:17 0.000104795
13 *121:24 *211:11 3.90097e-05
14 data_o[2] *121:24 0.000101599
15 *1851:A *121:24 9.25432e-05
16 *1855:A *121:24 7.70938e-05
17 *1858:A *121:24 6.80182e-05
*RES
1 *1937:DO[8] *121:4 0.133636 
2 *1937:DO[8] *121:24 44.76 
3 *121:24 *1912:A 49.095 
*END

*D_NET *122 0.0200684
*CONN
*I *1913:A I *D sky130_fd_sc_hd__buf_2
*I *236:DIODE I *D sky130_fd_sc_hd__diode_2
*I *1937:DO[9] O *D CF_SRAM_1024x32
*CAP
1 *1913:A 0
2 *236:DIODE 9.16776e-05
3 *1937:DO[9] 0.00145876
4 *122:30 0.000915033
5 *122:24 0.00168491
6 *122:12 0.00232031
7 *122:4 0
8 *122:12 *1937:DI[9] 0.0018146
9 *122:12 *141:16 4.82299e-05
10 *122:24 *200:20 0.00292622
11 *122:24 *201:16 5.83121e-06
12 *122:24 *201:22 0.000394976
13 *122:24 *205:11 0.00264603
14 *122:24 *210:11 0.000426616
15 *122:30 *196:12 0.00054531
16 *122:30 *200:16 0.00170441
17 *122:30 *205:11 0.00276586
18 *122:30 *210:11 0
19 data_o[4] *122:24 9.88099e-05
20 data_o[5] *122:24 4.18203e-05
21 *1843:A *122:12 0
22 *1860:A *122:24 0.000178947
*RES
1 *1937:DO[9] *122:4 0.163333 
2 *1937:DO[9] *122:12 32.12 
3 *122:12 *122:24 46.9825 
4 *122:24 *122:30 36.8225 
5 *122:30 *236:DIODE 2.74 
6 *122:30 *1913:A 1.6 
*END

*D_NET *123 0.00125092
*CONN
*I *1937:SM I *D CF_SRAM_1024x32
*I *1938:LO O *D sky130_fd_sc_hd__conb_1
*CAP
1 *1937:SM 0.00062546
2 *1938:LO 0.00062546
3 *1937:SM *1937:ScanInDR 0
*RES
1 *1938:LO *1937:SM 12.0063 
*END

*D_NET *124 0.021543
*CONN
*I *1937:BEN[0] I *D CF_SRAM_1024x32
*I *1831:X O *D sky130_fd_sc_hd__buf_2
*CAP
1 *1937:BEN[0] 0.00198551
2 *1831:X 0.000360906
3 *124:10 0.00365939
4 *124:8 0.00203478
5 *1937:BEN[0] *1937:ScanInDL 0
6 *124:10 *1937:DI[13] 0.00150465
7 *124:10 *133:10 0.00641333
8 *124:10 *165:16 0.000384424
9 *124:10 *167:10 0.00477196
10 *124:10 *209:11 0.000345408
11 *1831:A *124:8 5.06989e-05
12 *1900:A *124:10 3.19349e-05
*RES
1 *1831:X *124:8 7.5 
2 *124:8 *124:10 74.31 
3 *124:10 *1937:BEN[0] 25.0625 
*END

*D_NET *125 0.00156443
*CONN
*I *1937:ScanInCC I *D CF_SRAM_1024x32
*I *1939:LO O *D sky130_fd_sc_hd__conb_1
*CAP
1 *1937:ScanInCC 0.00042706
2 *1939:LO 0.000420557
3 *125:9 6.50316e-06
4 *1937:ScanInCC *1937:AD[3] 0.000606952
5 *1937:ScanInCC *204:9 0.000103362
*RES
1 *1939:LO *1937:ScanInCC 11.365 
2 *1937:ScanInCC *125:9 0.1125 
*END

*D_NET *126 0.00200433
*CONN
*I *1937:ScanInDL I *D CF_SRAM_1024x32
*I *1940:LO O *D sky130_fd_sc_hd__conb_1
*CAP
1 *1937:ScanInDL 0.000467884
2 *1940:LO 0.000467884
3 *1937:ScanInDL *1937:DI[0] 0.00106856
4 *1937:BEN[0] *1937:ScanInDL 0
*RES
1 *1940:LO *1937:ScanInDL 11.9725 
*END

*D_NET *127 0.00137667
*CONN
*I *1937:ScanInDR I *D CF_SRAM_1024x32
*I *1941:LO O *D sky130_fd_sc_hd__conb_1
*CAP
1 *1937:ScanInDR 0.000594387
2 *1941:LO 0.000594387
3 *1937:ScanInDR *1921:A 0.0001879
4 *1937:SM *1937:ScanInDR 0
*RES
1 *1941:LO *1937:ScanInDR 12.265 
*END

*D_NET *128 0.0020349
*CONN
*I *1937:TM I *D CF_SRAM_1024x32
*I *1942:LO O *D sky130_fd_sc_hd__conb_1
*CAP
1 *1937:TM 0.000462684
2 *1942:LO 0.000462684
3 *1937:TM *1937:WLBI 0.00110953
*RES
1 *1942:LO *1937:TM 12.4525 
*END

*D_NET *129 0.00241632
*CONN
*I *1937:WLBI I *D CF_SRAM_1024x32
*I *1943:LO O *D sky130_fd_sc_hd__conb_1
*CAP
1 *1937:WLBI 0.000278453
2 *1943:LO 0.000278453
3 *1937:WLBI *1922:A 0.00074988
4 *1937:WLBI *1937:DI[17] 0
5 *1937:TM *1937:WLBI 0.00110953
*RES
1 *1943:LO *1937:WLBI 13.7087 
*END

*D_NET *130 0.0019263
*CONN
*I *1937:WLOFF I *D CF_SRAM_1024x32
*I *1944:LO O *D sky130_fd_sc_hd__conb_1
*CAP
1 *1937:WLOFF 0.000513884
2 *1944:LO 0.000513884
3 *1937:WLOFF *1937:EN 0.000898529
4 *1937:WLOFF *1937:R_WB 0
*RES
1 *1944:LO *1937:WLOFF 17.0938 
*END

*D_NET *131 0.028849
*CONN
*I *1937:vpwrac I *D CF_SRAM_1024x32
*I *1945:HI O *D sky130_fd_sc_hd__conb_1
*CAP
1 *1937:vpwrac 0.00213265
2 *1945:HI 0.000319545
3 *131:10 0.00773677
4 *131:8 0.00592367
5 *1937:vpwrac *1937:vpwrpc 0.00134281
6 *131:8 *1937:AD[2] 0.000918804
7 *131:10 *132:10 0.0104748
*RES
1 *1945:HI *131:8 11.985 
2 *131:8 *131:10 123.143 
3 *131:10 *1937:vpwrac 9.65243 
*END

*D_NET *132 0.0278132
*CONN
*I *1937:vpwrpc I *D CF_SRAM_1024x32
*I *1946:HI O *D sky130_fd_sc_hd__conb_1
*CAP
1 *1937:vpwrpc 0.00234689
2 *1946:HI 0.000129717
3 *132:10 0.0068701
4 *132:8 0.00465292
5 *132:8 *1937:AD[1] 0.000997982
6 *132:8 *1937:AD[2] 0.000997982
7 *1937:vpwrac *1937:vpwrpc 0.00134281
8 *131:10 *132:10 0.0104748
*RES
1 *1946:HI *132:8 12.675 
2 *132:8 *132:10 118.552 
3 *132:10 *1937:vpwrpc 10.3339 
*END

*D_NET *133 0.0238169
*CONN
*I *1937:BEN[10] I *D CF_SRAM_1024x32
*I *1832:X O *D sky130_fd_sc_hd__buf_2
*CAP
1 *1937:BEN[10] 0.00197487
2 *1832:X 0.000354069
3 *133:10 0.00400144
4 *133:8 0.00238064
5 *133:8 *204:9 0.000136899
6 *133:10 *1937:DI[13] 0.00136146
7 *133:10 *169:10 0.000178437
8 *133:10 *209:11 0
9 *1832:A *133:8 4.78678e-05
10 *1900:A *133:10 1.94723e-05
11 *112:10 *133:10 0.00694841
12 *124:10 *133:10 0.00641333
*RES
1 *1832:X *133:8 7.845 
2 *133:8 *133:10 84.51 
3 *133:10 *1937:BEN[10] 25.8725 
*END

*D_NET *134 0.0215417
*CONN
*I *1937:BEN[11] I *D CF_SRAM_1024x32
*I *1833:X O *D sky130_fd_sc_hd__clkbuf_4
*CAP
1 *1937:BEN[11] 0.000693132
2 *1833:X 0.00097973
3 *134:20 0.002601
4 *134:10 0.00422782
5 *134:8 0.00329968
6 *134:8 *1937:AD[6] 0.000112586
7 *134:10 *1925:A 0
8 *134:10 *1937:BEN[4] 0.000768969
9 *134:10 *166:18 0
10 *134:20 *1936:A 0.000183036
11 *134:20 *1937:R_WB 0.000451411
12 *134:20 *136:20 0.00100266
13 *134:20 *152:18 0.000319576
14 *134:20 *156:20 0.000242019
15 *1833:A *134:8 1.9872e-05
16 *43:13 *134:10 0.00522282
17 *116:13 *134:10 0.000746309
18 *120:24 *134:20 0.00067108
*RES
1 *1833:X *134:8 14.055 
2 *134:8 *134:10 62.58 
3 *134:10 *134:20 48.63 
4 *134:20 *1937:BEN[11] 10.7775 
*END

*D_NET *135 0.0284768
*CONN
*I *1937:BEN[12] I *D CF_SRAM_1024x32
*I *1834:X O *D sky130_fd_sc_hd__clkbuf_4
*CAP
1 *1937:BEN[12] 0.0018246
2 *1834:X 0.000484204
3 *135:10 0.00506095
4 *135:8 0.00372056
5 *135:10 *1937:DI[14] 0.00190406
6 *135:10 *141:18 0.000344168
7 *135:10 *163:24 0.00123271
8 *135:10 *163:28 0.00350568
9 *135:10 *165:20 0.000578526
10 *135:10 *170:10 0.00951965
11 *135:10 *179:20 0.000282179
12 *135:10 *179:24 1.94615e-05
13 *135:10 *209:11 0
*RES
1 *1834:X *135:8 8.535 
2 *135:8 *135:10 113.07 
3 *135:10 *1937:BEN[12] 24.5225 
*END

*D_NET *136 0.0254187
*CONN
*I *1937:BEN[13] I *D CF_SRAM_1024x32
*I *1835:X O *D sky130_fd_sc_hd__clkbuf_4
*CAP
1 *1937:BEN[13] 0.000774619
2 *1835:X 0.000895247
3 *136:20 0.00347244
4 *136:16 0.00329307
5 *136:10 0.00383245
6 *136:8 0.00413244
7 *136:10 *137:18 0.00270695
8 *136:10 *166:22 0.00193219
9 *136:16 *156:8 6.90271e-05
10 *136:20 *1937:R_WB 0.000388696
11 *136:20 *1937:DI[13] 0
12 *136:20 *156:20 0.000123242
13 *1835:A *136:8 1.33205e-05
14 *1909:A *136:10 0.000411486
15 *43:13 *136:10 0.00237088
16 *134:20 *136:20 0.00100266
*RES
1 *1835:X *136:8 13.02 
2 *136:8 *136:10 80.43 
3 *136:10 *136:16 10.315 
4 *136:16 *136:20 49.025 
5 *136:20 *1937:BEN[13] 11.8425 
*END

*D_NET *137 0.0302653
*CONN
*I *1937:BEN[14] I *D CF_SRAM_1024x32
*I *1836:X O *D sky130_fd_sc_hd__clkbuf_4
*CAP
1 *1937:BEN[14] 0.0013546
2 *1836:X 9.7707e-05
3 *137:18 0.00473772
4 *137:16 0.00416024
5 *137:10 0.00251685
6 *137:8 0.00183744
7 *137:10 *1916:A 6.362e-05
8 *137:10 *1937:DI[13] 9.25935e-05
9 *137:10 *204:19 0.000689677
10 *137:10 *206:19 0.00340678
11 *137:10 *208:11 0.00174934
12 *137:10 *209:11 0.000218292
13 *137:10 *211:11 0
14 *137:16 *162:12 0.00061837
15 *137:18 *166:22 0.000755925
16 data_o[12] *137:10 0
17 *1834:A *137:10 6.69321e-05
18 *1836:A *137:8 4.89295e-05
19 *1869:A *137:10 9.21075e-05
20 *1870:A *137:10 6.94043e-05
21 *43:13 *137:18 0.00498183
22 *136:10 *137:18 0.00270695
*RES
1 *1836:X *137:8 4.74 
2 *137:8 *137:10 55.185 
3 *137:10 *137:16 12.73 
4 *137:16 *137:18 86.55 
5 *137:18 *1937:BEN[14] 19.7225 
*END

*D_NET *138 0.0321958
*CONN
*I *1937:BEN[15] I *D CF_SRAM_1024x32
*I *1837:X O *D sky130_fd_sc_hd__clkbuf_4
*CAP
1 *1937:BEN[15] 0.00701061
2 *1837:X 0.000312435
3 *138:10 0.00993609
4 *138:8 0.00323791
5 *1937:BEN[15] *1937:DI[14] 1.51394e-05
6 *1937:BEN[15] *1937:DI[13] 0.00629985
7 *1937:BEN[15] *167:10 0.00046334
8 *1937:BEN[15] *173:28 0.000453953
9 *1937:BEN[15] *179:20 0.000518103
10 *138:10 *196:12 0
11 *138:10 *205:11 0.00375599
12 *138:10 *210:11 0
13 *138:10 *210:19 0
14 *138:10 *211:11 0
15 data_o[13] *138:10 0
16 data_o[5] *1937:BEN[15] 5.86253e-05
17 *1836:A *138:10 0
18 *1884:A *1937:BEN[15] 0
19 *1895:A *1937:BEN[15] 0
20 *1896:A *1937:BEN[15] 0.000133794
*RES
1 *1837:X *138:8 7.845 
2 *138:8 *138:10 67.5525 
3 *138:10 *1937:BEN[15] 33.6851 
*END

*D_NET *139 0.00484401
*CONN
*I *1937:BEN[16] I *D CF_SRAM_1024x32
*I *1838:X O *D sky130_fd_sc_hd__buf_2
*CAP
1 *1937:BEN[16] 0.00223269
2 *1838:X 0.00223269
3 *139:17 0
4 *1937:BEN[16] *1921:A 0.000222058
5 *1937:BEN[16] *1937:DI[16] 0
6 *1937:BEN[16] *1937:DI[17] 9.60647e-05
7 *1937:BEN[16] *173:28 1.16597e-05
8 *1838:A *1937:BEN[16] 4.88478e-05
*RES
1 *1838:X *1937:BEN[16] 38.6 
2 *1937:BEN[16] *139:17 0.147 
*END

*D_NET *140 0.00499654
*CONN
*I *1937:BEN[17] I *D CF_SRAM_1024x32
*I *1839:X O *D sky130_fd_sc_hd__clkbuf_2
*CAP
1 *1937:BEN[17] 0.00234257
2 *1839:X 0.00234257
3 *1937:BEN[17] *1923:A 0.000296154
4 *1839:A *1937:BEN[17] 1.52418e-05
*RES
1 *1839:X *1937:BEN[17] 35.555 
*END

*D_NET *141 0.0222584
*CONN
*I *1937:AD[1] I *D CF_SRAM_1024x32
*I *1840:X O *D sky130_fd_sc_hd__clkbuf_4
*CAP
1 *1937:AD[1] 0.00143858
2 *1840:X 0.00121221
3 *141:18 0.00329985
4 *141:16 0.00307349
5 *1937:AD[1] *1937:AD[2] 8.99576e-05
6 *141:16 *1937:BEN[4] 0.00012793
7 *141:16 *204:19 0.00219734
8 *141:16 *206:17 0.000401757
9 *141:16 *206:19 0.00108053
10 *141:18 *1937:DI[14] 0.000848032
11 *141:18 *163:28 0.000584404
12 *141:18 *165:20 0.000551615
13 *141:18 *167:24 0.00164065
14 *141:18 *170:10 0
15 *141:18 *179:20 4.69685e-05
16 *141:18 *179:24 0.00249563
17 *141:18 *199:14 0.00145977
18 *1911:A *141:18 0.000302312
19 *1937:AD[0] *1937:AD[1] 1.70201e-05
20 *112:10 *141:18 0
21 *122:12 *141:16 4.82299e-05
22 *132:8 *1937:AD[1] 0.000997982
23 *135:10 *141:18 0.000344168
*RES
1 *1840:X *141:16 40.045 
2 *141:16 *141:18 61.56 
3 *141:18 *1937:AD[1] 22.7862 
*END

*D_NET *142 0.00536559
*CONN
*I *1937:BEN[18] I *D CF_SRAM_1024x32
*I *1841:X O *D sky130_fd_sc_hd__clkbuf_2
*CAP
1 *1937:BEN[18] 0.00253607
2 *1841:X 0.00253607
3 *1937:BEN[18] *1922:A 0.000113007
4 *1937:BEN[18] *1937:DI[18] 0
5 data_o[17] *1937:BEN[18] 1.77595e-05
6 *1841:A *1937:BEN[18] 0.000162684
*RES
1 *1841:X *1937:BEN[18] 33.055 
*END

*D_NET *143 0.00452278
*CONN
*I *1937:BEN[19] I *D CF_SRAM_1024x32
*I *1842:X O *D sky130_fd_sc_hd__clkbuf_2
*CAP
1 *1937:BEN[19] 0.00223692
2 *1842:X 0.00223692
3 *1937:BEN[19] *1937:DI[19] 0
4 *1842:A *1937:BEN[19] 4.89295e-05
*RES
1 *1842:X *1937:BEN[19] 28.615 
*END

*D_NET *144 0.015721
*CONN
*I *1937:BEN[1] I *D CF_SRAM_1024x32
*I *1843:X O *D sky130_fd_sc_hd__buf_2
*CAP
1 *1937:BEN[1] 0.00142928
2 *1843:X 0.00136111
3 *144:16 0.00447417
4 *144:8 0.004406
5 *1937:BEN[1] *1937:AD[7] 0.000515148
6 *1937:BEN[1] *152:42 0.000199606
7 *1937:BEN[1] *198:22 0.000251116
8 *1937:BEN[1] *228:19 0
9 *144:16 *1925:A 0.00221736
10 *144:16 *1937:BEN[5] 0
11 *144:16 *228:19 0.000785872
12 *1843:A *144:8 3.30017e-05
13 *1908:A *144:16 4.83002e-05
14 *43:13 *144:16 0
*RES
1 *1843:X *144:8 17.505 
2 *144:8 *144:16 49.075 
3 *144:16 *1937:BEN[1] 30.3425 
*END

*D_NET *145 0.00444103
*CONN
*I *1937:BEN[20] I *D CF_SRAM_1024x32
*I *1844:X O *D sky130_fd_sc_hd__clkbuf_2
*CAP
1 *1937:BEN[20] 0.00204279
2 *1844:X 0.00204279
3 *1937:BEN[20] *1937:DI[20] 0.000340203
4 *1844:A *1937:BEN[20] 1.52418e-05
*RES
1 *1844:X *1937:BEN[20] 34.4 
*END

*D_NET *146 0.00509785
*CONN
*I *1937:BEN[21] I *D CF_SRAM_1024x32
*I *1845:X O *D sky130_fd_sc_hd__clkbuf_2
*CAP
1 *1937:BEN[21] 0.00211942
2 *1845:X 0.00211942
3 *1937:BEN[21] *1927:A 0.00068099
4 *1845:A *1937:BEN[21] 0.000178021
*RES
1 *1845:X *1937:BEN[21] 36.8 
*END

*D_NET *147 0.00523908
*CONN
*I *1937:BEN[22] I *D CF_SRAM_1024x32
*I *1846:X O *D sky130_fd_sc_hd__clkbuf_2
*CAP
1 *1937:BEN[22] 0.00261192
2 *1846:X 0.00261192
3 *1846:A *1937:BEN[22] 1.52418e-05
*RES
1 *1846:X *1937:BEN[22] 38.51 
*END

*D_NET *148 0.00568543
*CONN
*I *1937:BEN[23] I *D CF_SRAM_1024x32
*I *1847:X O *D sky130_fd_sc_hd__clkbuf_2
*CAP
1 *1937:BEN[23] 0.00263901
2 *1847:X 0.00263901
3 *1937:BEN[23] *1937:BEN[24] 0.000103192
4 *1937:BEN[23] *1937:DI[24] 0.000255291
5 data_o[23] *1937:BEN[23] 0
6 *1847:A *1937:BEN[23] 4.89295e-05
*RES
1 *1847:X *1937:BEN[23] 40.82 
*END

*D_NET *149 0.00624942
*CONN
*I *1937:BEN[24] I *D CF_SRAM_1024x32
*I *1848:X O *D sky130_fd_sc_hd__clkbuf_2
*CAP
1 *1937:BEN[24] 0.00273342
2 *1848:X 0.00273342
3 *1937:BEN[24] *1931:A 0.00031664
4 *1937:BEN[24] *1937:BEN[25] 0.000347512
5 *1848:A *1937:BEN[24] 1.52418e-05
6 *1850:A *1937:BEN[24] 0
7 *1937:BEN[23] *1937:BEN[24] 0.000103192
*RES
1 *1848:X *1937:BEN[24] 42.845 
*END

*D_NET *150 0.00647077
*CONN
*I *1937:BEN[25] I *D CF_SRAM_1024x32
*I *1849:X O *D sky130_fd_sc_hd__buf_2
*CAP
1 *1937:BEN[25] 0.00280663
2 *1849:X 0.00280663
3 *1937:BEN[25] *1930:A 2.00104e-05
4 *1937:BEN[25] *1932:A 0
5 *1937:BEN[25] *1937:BEN[26] 0.000294995
6 *1849:A *1937:BEN[25] 5.06989e-05
7 *1852:A *1937:BEN[25] 0.000144306
8 *1937:BEN[24] *1937:BEN[25] 0.000347512
*RES
1 *1849:X *1937:BEN[25] 44.87 
*END

*D_NET *151 0.00678062
*CONN
*I *1937:BEN[26] I *D CF_SRAM_1024x32
*I *1850:X O *D sky130_fd_sc_hd__buf_2
*CAP
1 *1937:BEN[26] 0.00280876
2 *1850:X 0.00280876
3 *1937:BEN[26] *1933:A 0.000124699
4 *1937:BEN[26] *1937:DI[28] 8.30853e-06
5 *1937:BEN[26] *1937:DI[26] 0.00068579
6 *1850:A *1937:BEN[26] 4.93142e-05
7 *1937:BEN[25] *1937:BEN[26] 0.000294995
*RES
1 *1850:X *1937:BEN[26] 47.015 
*END

*D_NET *152 0.0230997
*CONN
*I *1937:AD[2] I *D CF_SRAM_1024x32
*I *1851:X O *D sky130_fd_sc_hd__clkbuf_4
*CAP
1 *1937:AD[2] 0.00162349
2 *1851:X 0.00259022
3 *152:42 0.0025668
4 *152:18 0.00353354
5 *1937:AD[2] *1937:R_WB 0.000464969
6 *1937:AD[2] *174:10 0.0016177
7 *152:18 *1936:A 0
8 *152:18 *1937:DI[5] 8.23457e-05
9 *152:18 *1937:DI[8] 0.00187688
10 *152:18 *159:12 0.000314542
11 *152:18 *198:22 0.000122135
12 *152:42 *1937:R_WB 0.000129629
13 *152:42 *1937:AD[7] 0.00143933
14 *152:42 *159:12 0.000872575
15 *152:42 *194:10 0.000367628
16 *152:42 *198:22 0.000949091
17 *152:42 *216:29 0.0014581
18 *152:42 *218:12 3.32246e-05
19 *1937:AD[0] *1937:AD[2] 0
20 *1937:AD[1] *1937:AD[2] 8.99576e-05
21 *1937:BEN[1] *152:42 0.000199606
22 *119:33 *152:18 0.000531581
23 *131:8 *1937:AD[2] 0.000918804
24 *132:8 *1937:AD[2] 0.000997982
25 *134:20 *152:18 0.000319576
*RES
1 *1851:X *152:18 49.49 
2 *152:18 *152:42 41.91 
3 *152:42 *1937:AD[2] 36.3763 
*END

*D_NET *153 0.00759009
*CONN
*I *1937:BEN[27] I *D CF_SRAM_1024x32
*I *1852:X O *D sky130_fd_sc_hd__buf_2
*CAP
1 *1937:BEN[27] 0.00277407
2 *1852:X 0.00277407
3 *1937:BEN[27] *1933:A 0.000646899
4 *1937:BEN[27] *1935:A 0.000156765
5 *1937:BEN[27] *1937:DI[27] 0.000860245
6 *1937:BEN[27] *1937:DI[28] 0.000154673
7 *1937:BEN[27] *1937:DI[26] 0.000101163
8 *1937:BEN[27] *154:12 0.000122207
9 *1887:A *1937:BEN[27] 0
*RES
1 *1852:X *1937:BEN[27] 48.8 
*END

*D_NET *154 0.00756564
*CONN
*I *1937:BEN[28] I *D CF_SRAM_1024x32
*I *1853:X O *D sky130_fd_sc_hd__buf_2
*CAP
1 *1937:BEN[28] 0.0022095
2 *1853:X 0.000910466
3 *154:12 0.00311996
4 *1937:BEN[28] *158:12 0.000187815
5 *154:12 *1937:DI[27] 0.000212348
6 data_o[28] *154:12 0.000128991
7 data_o[29] *154:12 0
8 data_o[30] *154:12 5.2052e-05
9 *1853:A *154:12 3.45679e-05
10 *1854:A *154:12 6.06899e-05
11 *1856:A *154:12 8.56869e-05
12 *1857:A *1937:BEN[28] 9.38785e-05
13 *1857:A *154:12 9.9123e-05
14 *1888:A *154:12 7.5648e-05
15 *1889:A *154:12 8.51478e-05
16 *1891:A *154:12 8.7562e-05
17 *1892:A *154:12 0
18 *1937:BEN[27] *154:12 0.000122207
*RES
1 *1853:X *154:12 24.86 
2 *154:12 *1937:BEN[28] 27.36 
*END

*D_NET *155 0.00811376
*CONN
*I *1937:BEN[29] I *D CF_SRAM_1024x32
*I *1854:X O *D sky130_fd_sc_hd__buf_2
*CAP
1 *1937:BEN[29] 0.000583435
2 *1854:X 0.00266571
3 *155:12 0.00324915
4 *155:12 *1933:A 0.00159148
5 *155:12 *157:12 0
6 *1854:A *155:12 2.39856e-05
*RES
1 *1854:X *155:12 44.495 
2 *155:12 *1937:BEN[29] 9.675 
*END

*D_NET *156 0.0136578
*CONN
*I *1937:BEN[2] I *D CF_SRAM_1024x32
*I *1855:X O *D sky130_fd_sc_hd__buf_2
*CAP
1 *1937:BEN[2] 0.00073059
2 *1855:X 0.0016331
3 *156:20 0.0019568
4 *156:8 0.00285931
5 *156:20 *1936:A 0.00153614
6 *156:20 *1937:R_WB 0.000558665
7 *156:20 *174:10 0.00233497
8 *156:20 *194:10 0.000170089
9 *156:20 *216:29 0.000575198
10 *1855:A *156:8 3.30017e-05
11 *119:33 *156:20 0.000835653
12 *134:20 *156:20 0.000242019
13 *136:16 *156:8 6.90271e-05
14 *136:20 *156:20 0.000123242
*RES
1 *1855:X *156:8 20.265 
2 *156:8 *156:20 44.78 
3 *156:20 *1937:BEN[2] 11.5425 
*END

*D_NET *157 0.00822826
*CONN
*I *1937:BEN[30] I *D CF_SRAM_1024x32
*I *1856:X O *D sky130_fd_sc_hd__buf_2
*CAP
1 *1937:BEN[30] 0.000666783
2 *1856:X 0.00268211
3 *157:12 0.00334889
4 *157:12 *158:12 0.00147978
5 *1856:A *157:12 5.06989e-05
6 *155:12 *157:12 0
*RES
1 *1856:X *157:12 45.23 
2 *157:12 *1937:BEN[30] 10.995 
*END

*D_NET *158 0.00923784
*CONN
*I *1937:BEN[31] I *D CF_SRAM_1024x32
*I *1857:X O *D sky130_fd_sc_hd__buf_2
*CAP
1 *1937:BEN[31] 0.000804402
2 *1857:X 0.00296317
3 *158:12 0.00376757
4 *1857:A *158:12 3.51072e-05
5 *1937:BEN[28] *158:12 0.000187815
6 *157:12 *158:12 0.00147978
*RES
1 *1857:X *158:12 46.16 
2 *158:12 *1937:BEN[31] 12.12 
*END

*D_NET *159 0.0102423
*CONN
*I *1937:BEN[3] I *D CF_SRAM_1024x32
*I *1858:X O *D sky130_fd_sc_hd__buf_2
*CAP
1 *1937:BEN[3] 0.000646837
2 *1858:X 0.00237879
3 *159:12 0.00302563
4 *159:12 *1936:A 0.000100316
5 *159:12 *194:10 0.00203232
6 *159:12 *198:22 0.000749118
7 *121:24 *159:12 0.000122184
8 *152:18 *159:12 0.000314542
9 *152:42 *159:12 0.000872575
*RES
1 *1858:X *159:12 48.905 
2 *159:12 *1937:BEN[3] 10.2375 
*END

*D_NET *160 0.00696511
*CONN
*I *1937:BEN[4] I *D CF_SRAM_1024x32
*I *1859:X O *D sky130_fd_sc_hd__buf_2
*CAP
1 *1937:BEN[4] 0.00232612
2 *1859:X 0.00232612
3 *1859:A *1937:BEN[4] 2.97522e-05
4 *1909:A *1937:BEN[4] 0.000615848
5 *116:13 *1937:BEN[4] 0.000770382
6 *134:10 *1937:BEN[4] 0.000768969
7 *141:16 *1937:BEN[4] 0.00012793
*RES
1 *1859:X *1937:BEN[4] 42.8075 
*END

*D_NET *161 0.00617693
*CONN
*I *1937:BEN[5] I *D CF_SRAM_1024x32
*I *1860:X O *D sky130_fd_sc_hd__clkbuf_2
*CAP
1 *1937:BEN[5] 0.0026515
2 *1860:X 0.0026515
3 *1937:BEN[5] *1925:A 7.70545e-05
4 *1937:BEN[5] *1937:DI[4] 3.55927e-05
5 *1937:BEN[5] *1937:DI[5] 3.3666e-05
6 *1937:BEN[5] *166:18 7.01359e-05
7 *1860:A *1937:BEN[5] 1.33205e-05
8 *1908:A *1937:BEN[5] 0.000285203
9 *1909:A *1937:BEN[5] 0.000298436
10 *116:13 *1937:BEN[5] 6.05228e-05
11 *144:16 *1937:BEN[5] 0
*RES
1 *1860:X *1937:BEN[5] 38.5925 
*END

*D_NET *162 0.00958791
*CONN
*I *1937:BEN[6] I *D CF_SRAM_1024x32
*I *1861:X O *D sky130_fd_sc_hd__buf_2
*CAP
1 *1937:BEN[6] 0.00166609
2 *1861:X 0.00171205
3 *162:12 0.00337814
4 *1937:BEN[6] *194:10 0.000101339
5 *162:12 *1937:DI[14] 0.000210857
6 *1861:A *162:12 4.60123e-05
7 *120:24 *162:12 0.00185506
8 *137:16 *162:12 0.00061837
*RES
1 *1861:X *162:12 34.82 
2 *162:12 *1937:BEN[6] 20.3625 
*END

*D_NET *163 0.0176057
*CONN
*I *1937:AD[3] I *D CF_SRAM_1024x32
*I *1862:X O *D sky130_fd_sc_hd__clkbuf_4
*CAP
1 *1937:AD[3] 0.00126885
2 *1862:X 0.00141926
3 *163:28 0.00215826
4 *163:24 0.00230866
5 *163:24 *1937:DI[14] 0.000545107
6 *163:24 *165:20 0.00123437
7 *163:28 *1937:DI[14] 0.000294292
8 *163:28 *179:24 0.00244717
9 *1937:AD[9] *1937:AD[3] 0
10 *1937:ScanInCC *1937:AD[3] 0.000606952
11 *113:17 *1937:AD[3] 0
12 *135:10 *163:24 0.00123271
13 *135:10 *163:28 0.00350568
14 *141:18 *163:28 0.000584404
*RES
1 *1862:X *163:24 27.0604 
2 *163:24 *163:28 42.5225 
3 *163:28 *1937:AD[3] 21.2062 
*END

*D_NET *164 0.0126243
*CONN
*I *1937:BEN[7] I *D CF_SRAM_1024x32
*I *1863:X O *D sky130_fd_sc_hd__buf_2
*CAP
1 *1937:BEN[7] 0.00240083
2 *1863:X 0.00133745
3 *164:27 0
4 *164:22 0.00373828
5 *164:22 *191:16 0.00211586
6 *164:22 *201:16 0.00156021
7 *164:22 *204:17 8.30853e-06
8 *164:22 *211:11 0.000276815
9 data_o[6] *164:22 0.000104566
10 *1858:A *164:22 0.000108647
11 *1859:A *164:22 5.98118e-05
12 *1873:A *164:22 5.10684e-05
13 *1890:A *1937:BEN[7] 8.81641e-05
14 *1893:A *164:22 0.000112418
15 *1894:A *164:22 0.000102819
16 *121:24 *164:22 0.000559023
*RES
1 *1863:X *164:22 46.475 
2 *164:22 *1937:BEN[7] 27.36 
3 *1937:BEN[7] *164:27 0.133636 
*END

*D_NET *165 0.0155148
*CONN
*I *1937:BEN[8] I *D CF_SRAM_1024x32
*I *1864:X O *D sky130_fd_sc_hd__buf_2
*CAP
1 *1937:BEN[8] 0.00177945
2 *1864:X 0.00122877
3 *165:20 0.0027272
4 *165:16 0.00217652
5 *165:16 *167:10 0.00148845
6 *165:16 *209:11 0.00218918
7 *165:20 *1937:DI[14] 0.000437151
8 *165:20 *179:20 0.000187759
9 *165:20 *199:14 0.000522192
10 *1864:A *165:16 2.91701e-05
11 *124:10 *165:16 0.000384424
12 *135:10 *165:20 0.000578526
13 *141:18 *165:20 0.000551615
14 *163:24 *165:20 0.00123437
*RES
1 *1864:X *165:16 39.37 
2 *165:16 *165:20 30.665 
3 *165:20 *1937:BEN[8] 21.7725 
*END

*D_NET *166 0.0177228
*CONN
*I *1937:BEN[9] I *D CF_SRAM_1024x32
*I *1865:X O *D sky130_fd_sc_hd__buf_2
*CAP
1 *1937:BEN[9] 0.00135116
2 *1865:X 0.00108747
3 *166:22 0.00362029
4 *166:18 0.00416133
5 *166:10 0.00297967
6 *166:18 *1937:DI[5] 0.000238848
7 *166:18 *228:19 0.000950404
8 *1865:A *166:10 4.56156e-05
9 *1908:A *166:18 0.000277806
10 *1937:BEN[5] *166:18 7.01359e-05
11 *116:13 *166:18 0.000251982
12 *134:10 *166:18 0
13 *136:10 *166:22 0.00193219
14 *137:18 *166:22 0.000755925
*RES
1 *1865:X *166:10 16.83 
2 *166:10 *166:18 40.975 
3 *166:18 *166:22 40.1 
4 *166:22 *1937:BEN[9] 16.9575 
*END

*D_NET *167 0.0213677
*CONN
*I *1937:DI[0] I *D CF_SRAM_1024x32
*I *1866:X O *D sky130_fd_sc_hd__buf_2
*CAP
1 *1937:DI[0] 0.00122939
2 *1866:X 0.000327317
3 *167:24 0.00254605
4 *167:10 0.00250908
5 *167:8 0.00151974
6 *1937:DI[0] *204:9 0
7 *167:10 *1937:DI[13] 0.000203402
8 *167:10 *179:20 0.00228373
9 *167:10 *209:11 0.000561175
10 *167:24 *1937:DI[14] 0.000269605
11 *1866:A *167:8 5.06989e-05
12 *1911:A *167:24 0.000434566
13 *1937:ScanInDL *1937:DI[0] 0.00106856
14 *1937:BEN[15] *167:10 0.00046334
15 *124:10 *167:10 0.00477196
16 *141:18 *167:24 0.00164065
17 *165:16 *167:10 0.00148845
*RES
1 *1866:X *167:8 7.155 
2 *167:8 *167:10 55.185 
3 *167:10 *167:24 31.215 
4 *167:24 *1937:DI[0] 20.6325 
*END

*D_NET *168 0.023876
*CONN
*I *1937:DI[10] I *D CF_SRAM_1024x32
*I *1867:X O *D sky130_fd_sc_hd__buf_2
*CAP
1 *1937:DI[10] 0.00129568
2 *1867:X 0.000161886
3 *168:10 0.00298155
4 *168:8 0.00184776
5 *1937:DI[10] *205:9 0.00299628
6 *168:10 *210:11 0.00727996
7 *168:10 *211:11 0.00709146
8 *1829:A *1937:DI[10] 0.000175489
9 *1867:A *168:8 4.59354e-05
*RES
1 *1867:X *168:8 5.43 
2 *168:8 *168:10 82.98 
3 *168:10 *1937:DI[10] 31.8575 
*END

*D_NET *169 0.027696
*CONN
*I *1937:DI[11] I *D CF_SRAM_1024x32
*I *1868:X O *D sky130_fd_sc_hd__buf_2
*CAP
1 *1937:DI[11] 0.00150474
2 *1868:X 0.000464417
3 *169:10 0.00372131
4 *169:8 0.00268099
5 *1937:DI[11] *206:13 0.00131527
6 *169:10 *170:10 0.008454
7 *169:10 *173:28 0.00166789
8 *169:10 *209:11 0
9 *1868:A *169:8 5.06989e-05
10 *112:10 *169:10 0.00765822
11 *133:10 *169:10 0.000178437
*RES
1 *1868:X *169:8 8.535 
2 *169:8 *169:10 98.025 
3 *169:10 *1937:DI[11] 24.3425 
*END

*D_NET *170 0.0307104
*CONN
*I *1937:DI[12] I *D CF_SRAM_1024x32
*I *1869:X O *D sky130_fd_sc_hd__clkbuf_4
*CAP
1 *1937:DI[12] 0.00140756
2 *1869:X 0.000447552
3 *170:10 0.00400556
4 *170:8 0.00304555
5 *1937:DI[12] *208:9 0.00135477
6 *170:10 *1937:DI[14] 0.00217637
7 *170:10 *209:11 0
8 *112:10 *170:10 0.000299363
9 *135:10 *170:10 0.00951965
10 *141:18 *170:10 0
11 *169:10 *170:10 0.008454
*RES
1 *1869:X *170:8 8.19 
2 *170:8 *170:10 112.305 
3 *170:10 *1937:DI[12] 24.0125 
*END

*D_NET *171 0.0329038
*CONN
*I *1937:DI[13] I *D CF_SRAM_1024x32
*I *1870:X O *D sky130_fd_sc_hd__clkbuf_4
*CAP
1 *1937:DI[13] 0.00576972
2 *1870:X 0.00576972
3 *1937:DI[13] *173:28 0.0112491
4 *1937:DI[13] *209:9 0.000545573
5 *1937:DI[13] *211:11 0
6 data_o[12] *1937:DI[13] 6.16226e-06
7 *1835:A *1937:DI[13] 0
8 *1870:A *1937:DI[13] 0.000101571
9 *1937:BEN[15] *1937:DI[13] 0.00629985
10 *124:10 *1937:DI[13] 0.00150465
11 *133:10 *1937:DI[13] 0.00136146
12 *136:20 *1937:DI[13] 0
13 *137:10 *1937:DI[13] 9.25935e-05
14 *167:10 *1937:DI[13] 0.000203402
*RES
1 *1870:X *1937:DI[13] 45.9417 
*END

*D_NET *172 0.0379692
*CONN
*I *1937:DI[14] I *D CF_SRAM_1024x32
*I *1871:X O *D sky130_fd_sc_hd__clkbuf_4
*CAP
1 *1937:DI[14] 0.00791159
2 *1871:X 0.00791159
3 *1937:DI[14] *173:28 0.0142445
4 *1937:DI[14] *199:14 0.000401178
5 *1937:DI[14] *210:9 0.000549434
6 *1937:DI[14] *211:11 0
7 *1837:A *1937:DI[14] 7.32371e-06
8 *1871:A *1937:DI[14] 2.73469e-05
9 *1872:A *1937:DI[14] 0
10 *1937:BEN[15] *1937:DI[14] 1.51394e-05
11 *120:24 *1937:DI[14] 0.000215612
12 *135:10 *1937:DI[14] 0.00190406
13 *141:18 *1937:DI[14] 0.000848032
14 *162:12 *1937:DI[14] 0.000210857
15 *163:24 *1937:DI[14] 0.000545107
16 *163:28 *1937:DI[14] 0.000294292
17 *165:20 *1937:DI[14] 0.000437151
18 *167:24 *1937:DI[14] 0.000269605
19 *170:10 *1937:DI[14] 0.00217637
*RES
1 *1871:X *1937:DI[14] 44.8948 
*END

*D_NET *173 0.0411276
*CONN
*I *1937:DI[15] I *D CF_SRAM_1024x32
*I *1872:X O *D sky130_fd_sc_hd__clkbuf_4
*CAP
1 *1937:DI[15] 0.000474614
2 *1872:X 0.0048958
3 *173:28 0.00537042
4 *1937:DI[15] *211:9 0.000641551
5 *173:28 *1937:DI[16] 4.04634e-05
6 *1937:BEN[16] *173:28 1.16597e-05
7 *1937:BEN[15] *173:28 0.000453953
8 *1937:DI[14] *173:28 0.0142445
9 *1937:DI[13] *173:28 0.0112491
10 *112:10 *173:28 0.00207769
11 *169:10 *173:28 0.00166789
*RES
1 *1872:X *173:28 45.3467 
2 *173:28 *1937:DI[15] 10.3275 
*END

*D_NET *174 0.0177394
*CONN
*I *1937:AD[4] I *D CF_SRAM_1024x32
*I *1873:X O *D sky130_fd_sc_hd__buf_2
*CAP
1 *1937:AD[4] 0.000425099
2 *1873:X 0.00167663
3 *174:10 0.00249484
4 *174:8 0.00374637
5 *1937:AD[4] *1937:AD[5] 0.00112572
6 *174:10 *1937:R_WB 0.000852074
7 *174:10 *1937:AD[7] 0
8 *174:10 *1937:DI[4] 0.000881826
9 *174:10 *216:29 0.00025728
10 *174:10 *218:12 0.00187322
11 *1873:A *174:8 4.60061e-05
12 *1937:AD[2] *174:10 0.0016177
13 *119:33 *174:10 0.000407663
14 *156:20 *174:10 0.00233497
*RES
1 *1873:X *174:8 19.92 
2 *174:8 *174:10 60.03 
3 *174:10 *1937:AD[4] 12.8188 
*END

*D_NET *175 0.00579057
*CONN
*I *1937:DI[16] I *D CF_SRAM_1024x32
*I *1874:X O *D sky130_fd_sc_hd__clkbuf_2
*CAP
1 *1937:DI[16] 0.00255243
2 *1874:X 0.00255243
3 *1937:DI[16] *234:DIODE 0.000123955
4 *1937:DI[16] *1921:A 0.000285502
5 *1937:DI[16] *210:19 3.6355e-05
6 *1937:DI[16] *211:11 0
7 data_o[14] *1937:DI[16] 9.09788e-06
8 data_o[15] *1937:DI[16] 0.000104566
9 *1837:A *1937:DI[16] 8.57667e-05
10 *1937:BEN[16] *1937:DI[16] 0
11 *173:28 *1937:DI[16] 4.04634e-05
*RES
1 *1874:X *1937:DI[16] 44.24 
*END

*D_NET *176 0.00606655
*CONN
*I *1937:DI[17] I *D CF_SRAM_1024x32
*I *1875:X O *D sky130_fd_sc_hd__clkbuf_2
*CAP
1 *1937:DI[17] 0.00233485
2 *1875:X 0.00233485
3 *1937:DI[17] *1921:A 0.000396058
4 *1937:DI[17] *1922:A 0.000264173
5 *1937:DI[17] *1923:A 2.99731e-05
6 *1875:A *1937:DI[17] 4.89295e-05
7 *1937:BEN[16] *1937:DI[17] 9.60647e-05
8 *1937:WLBI *1937:DI[17] 0
9 *1937:CLKin *1937:DI[17] 0.000561657
*RES
1 *1875:X *1937:DI[17] 41.255 
*END

*D_NET *177 0.00516001
*CONN
*I *1937:DI[18] I *D CF_SRAM_1024x32
*I *1876:X O *D sky130_fd_sc_hd__clkbuf_2
*CAP
1 *1937:DI[18] 0.00237336
2 *1876:X 0.00237336
3 *1937:DI[18] *1923:A 0
4 *1937:DI[18] *1924:A 0.000393422
5 *1876:A *1937:DI[18] 1.9872e-05
6 *1937:BEN[18] *1937:DI[18] 0
*RES
1 *1876:X *1937:DI[18] 39.2 
*END

*D_NET *178 0.00444341
*CONN
*I *1937:DI[19] I *D CF_SRAM_1024x32
*I *1877:X O *D sky130_fd_sc_hd__clkbuf_2
*CAP
1 *1937:DI[19] 0.00217823
2 *1877:X 0.00217823
3 *1937:DI[19] *1924:A 0
4 *1877:A *1937:DI[19] 8.696e-05
5 *1937:BEN[19] *1937:DI[19] 0
*RES
1 *1877:X *1937:DI[19] 38 
*END

*D_NET *179 0.0174768
*CONN
*I *1937:DI[1] I *D CF_SRAM_1024x32
*I *1878:X O *D sky130_fd_sc_hd__buf_2
*CAP
1 *1937:DI[1] 0.00151194
2 *1878:X 0.00125505
3 *179:24 0.00210577
4 *179:20 0.00184888
5 *1937:DI[1] *216:29 0
6 *179:20 *209:11 0.00228206
7 *1878:A *179:20 3.30017e-05
8 *1908:A *179:20 0.000159109
9 *1937:BEN[15] *179:20 0.000518103
10 *135:10 *179:20 0.000282179
11 *135:10 *179:24 1.94615e-05
12 *141:18 *179:20 4.69685e-05
13 *141:18 *179:24 0.00249563
14 *163:28 *179:24 0.00244717
15 *165:20 *179:20 0.000187759
16 *167:10 *179:20 0.00228373
*RES
1 *1878:X *179:20 44.0425 
2 *179:20 *179:24 30.7925 
3 *179:24 *1937:DI[1] 21.7425 
*END

*D_NET *180 0.00473075
*CONN
*I *1937:DI[20] I *D CF_SRAM_1024x32
*I *1879:X O *D sky130_fd_sc_hd__clkbuf_2
*CAP
1 *1937:DI[20] 0.00212839
2 *1879:X 0.00212839
3 *1937:DI[20] *1926:A 0.000118527
4 *1879:A *1937:DI[20] 1.52418e-05
5 *1937:BEN[20] *1937:DI[20] 0.000340203
*RES
1 *1879:X *1937:DI[20] 35.09 
*END

*D_NET *181 0.00465581
*CONN
*I *1937:DI[21] I *D CF_SRAM_1024x32
*I *1880:X O *D sky130_fd_sc_hd__clkbuf_2
*CAP
1 *1937:DI[21] 0.00230362
2 *1880:X 0.00230362
3 *1937:DI[21] *1927:A 0
4 *1937:DI[21] *219:6 0
5 *1880:A *1937:DI[21] 4.85763e-05
*RES
1 *1880:X *1937:DI[21] 28.825 
*END

*D_NET *182 0.00547347
*CONN
*I *1937:DI[22] I *D CF_SRAM_1024x32
*I *1881:X O *D sky130_fd_sc_hd__clkbuf_2
*CAP
1 *1937:DI[22] 0.00173494
2 *1881:X 0.00173494
3 *1937:DI[22] *1928:A 0.00197489
4 *1881:A *1937:DI[22] 2.86975e-05
*RES
1 *1881:X *1937:DI[22] 28.6 
*END

*D_NET *183 0.00511119
*CONN
*I *1937:DI[23] I *D CF_SRAM_1024x32
*I *1882:X O *D sky130_fd_sc_hd__clkbuf_2
*CAP
1 *1937:DI[23] 0.0017507
2 *1882:X 0.0017507
3 *1937:DI[23] *1929:A 0.00159455
4 *1882:A *1937:DI[23] 1.52418e-05
*RES
1 *1882:X *1937:DI[23] 34.865 
*END

*D_NET *184 0.00537972
*CONN
*I *1937:DI[24] I *D CF_SRAM_1024x32
*I *1883:X O *D sky130_fd_sc_hd__clkbuf_2
*CAP
1 *1937:DI[24] 0.00167503
2 *1883:X 0.00167503
3 *1937:DI[24] *1930:A 0.0016874
4 *1883:A *1937:DI[24] 8.696e-05
5 *1937:BEN[23] *1937:DI[24] 0.000255291
*RES
1 *1883:X *1937:DI[24] 37.775 
*END

*D_NET *185 0.013816
*CONN
*I *1937:AD[5] I *D CF_SRAM_1024x32
*I *1884:X O *D sky130_fd_sc_hd__buf_2
*CAP
1 *1937:AD[5] 0.0016588
2 *1884:X 8.21161e-05
3 *185:10 0.0031799
4 *185:8 0.00160322
5 *1937:AD[5] *231:DIODE 2.49909e-05
6 *1937:AD[5] *1916:A 8.52883e-05
7 *1937:AD[5] *1937:AD[6] 0
8 *185:10 *201:16 0.0023888
9 *185:10 *204:17 0.000108755
10 *185:10 *211:11 0.00132523
11 data_o[10] *185:10 5.44872e-05
12 data_o[11] *185:10 5.49946e-05
13 data_o[8] *185:10 0.000150837
14 data_o[9] *185:10 5.49946e-05
15 *1830:A *185:10 0.000153139
16 *1832:A *185:10 0.00015266
17 *1861:A *185:10 0.000129365
18 *1863:A *185:10 0.000108647
19 *1865:A *185:10 0.000164648
20 *1867:A *185:10 0.000172886
21 *1868:A *185:10 0.000150299
22 *1895:A *185:10 0.000153139
23 *1896:A *185:10 0.000124363
24 *1897:A *185:10 0.00015266
25 *1898:A *185:10 0.00015266
26 *1899:A *185:10 0.000150299
27 *1904:A *185:10 0.000153139
28 *1937:AD[4] *1937:AD[5] 0.00112572
*RES
1 *1884:X *185:8 4.395 
2 *185:8 *185:10 50.34 
3 *185:10 *1937:AD[5] 29.7687 
*END

*D_NET *186 0.00513703
*CONN
*I *1937:DI[25] I *D CF_SRAM_1024x32
*I *1885:X O *D sky130_fd_sc_hd__clkbuf_2
*CAP
1 *1937:DI[25] 0.002076
2 *1885:X 0.002076
3 *1937:DI[25] *1931:A 0.000969794
4 *1885:A *1937:DI[25] 1.52418e-05
*RES
1 *1885:X *1937:DI[25] 38.975 
*END

*D_NET *187 0.0060822
*CONN
*I *1937:DI[26] I *D CF_SRAM_1024x32
*I *1886:X O *D sky130_fd_sc_hd__clkbuf_2
*CAP
1 *1937:DI[26] 0.00261898
2 *1886:X 0.00261898
3 *1937:DI[26] *1933:A 2.85764e-05
4 *1886:A *1937:DI[26] 2.86975e-05
5 *1937:BEN[26] *1937:DI[26] 0.00068579
6 *1937:BEN[27] *1937:DI[26] 0.000101163
*RES
1 *1886:X *1937:DI[26] 41.03 
*END

*D_NET *188 0.00687892
*CONN
*I *1937:DI[27] I *D CF_SRAM_1024x32
*I *1887:X O *D sky130_fd_sc_hd__clkbuf_2
*CAP
1 *1937:DI[27] 0.00217308
2 *1887:X 0.00217308
3 *1937:DI[27] *1933:A 0.00128988
4 data_o[27] *1937:DI[27] 0
5 data_o[28] *1937:DI[27] 0.00012429
6 *1854:A *1937:DI[27] 4.60061e-05
7 *1937:BEN[27] *1937:DI[27] 0.000860245
8 *154:12 *1937:DI[27] 0.000212348
*RES
1 *1887:X *1937:DI[27] 42.98 
*END

*D_NET *189 0.00698026
*CONN
*I *1937:DI[28] I *D CF_SRAM_1024x32
*I *1888:X O *D sky130_fd_sc_hd__buf_2
*CAP
1 *1937:DI[28] 0.00240854
2 *1888:X 0.00240854
3 *1937:DI[28] *1933:A 0.000137779
4 *1937:DI[28] *1934:A 0.0015286
5 *1937:DI[28] *1937:DI[29] 0.000281347
6 *1937:DI[28] *1937:DI[30] 8.30853e-06
7 *1888:A *1937:DI[28] 4.41506e-05
8 *1937:BEN[26] *1937:DI[28] 8.30853e-06
9 *1937:BEN[27] *1937:DI[28] 0.000154673
*RES
1 *1888:X *1937:DI[28] 45.14 
*END

*D_NET *190 0.00799842
*CONN
*I *1937:DI[29] I *D CF_SRAM_1024x32
*I *1889:X O *D sky130_fd_sc_hd__buf_2
*CAP
1 *1937:DI[29] 0.00220364
2 *1889:X 0.00220364
3 *1937:DI[29] *1934:A 8.87475e-05
4 *1937:DI[29] *1935:A 0.00256628
5 *1937:DI[29] *1937:DI[30] 3.43449e-05
6 *1889:A *1937:DI[29] 3.1876e-05
7 *1905:A *1937:DI[29] 0.000588532
8 *1937:DI[28] *1937:DI[29] 0.000281347
*RES
1 *1889:X *1937:DI[29] 47.195 
*END

*D_NET *191 0.0131998
*CONN
*I *1937:DI[2] I *D CF_SRAM_1024x32
*I *1890:X O *D sky130_fd_sc_hd__buf_2
*CAP
1 *1937:DI[2] 0.00210995
2 *1890:X 0.00131076
3 *191:16 0.00342071
4 *1937:DI[2] *228:19 0.000276321
5 *191:16 *204:17 0.000454177
6 *191:16 *206:17 0.000104566
7 *191:16 *206:19 6.80963e-05
8 data_o[2] *191:16 7.01359e-05
9 *1862:A *191:16 6.70749e-05
10 *1890:A *191:16 1.9872e-05
11 *1911:A *1937:DI[2] 0.000376596
12 *1912:A *191:16 0.00261142
13 *121:24 *191:16 0.000194218
14 *164:22 *191:16 0.00211586
*RES
1 *1890:X *191:16 49.55 
2 *191:16 *1937:DI[2] 26.4825 
*END

*D_NET *192 0.00824932
*CONN
*I *1937:DI[30] I *D CF_SRAM_1024x32
*I *1891:X O *D sky130_fd_sc_hd__buf_2
*CAP
1 *1937:DI[30] 0.00234025
2 *1891:X 0.00234025
3 *1937:DI[30] *193:12 0.00086317
4 data_o[30] *1937:DI[30] 2.30258e-05
5 data_o[31] *1937:DI[30] 3.53776e-05
6 *1891:A *1937:DI[30] 5.06989e-05
7 *1905:A *1937:DI[30] 0.00181805
8 *1906:A *1937:DI[30] 0.000735847
9 *1937:DI[28] *1937:DI[30] 8.30853e-06
10 *1937:DI[29] *1937:DI[30] 3.43449e-05
*RES
1 *1891:X *1937:DI[30] 49.25 
*END

*D_NET *193 0.00856203
*CONN
*I *1937:DI[31] I *D CF_SRAM_1024x32
*I *1892:X O *D sky130_fd_sc_hd__buf_2
*CAP
1 *1937:DI[31] 0.0016489
2 *1892:X 0.000788945
3 *193:12 0.00243785
4 *1892:A *193:12 3.51072e-05
5 *1905:A *193:12 0.000820268
6 *1906:A *1937:DI[31] 0.00162149
7 *1906:A *193:12 0.000346297
8 *1937:DI[30] *193:12 0.00086317
*RES
1 *1892:X *193:12 25.55 
2 *193:12 *1937:DI[31] 25.755 
*END

*D_NET *194 0.0111646
*CONN
*I *1937:DI[3] I *D CF_SRAM_1024x32
*I *1893:X O *D sky130_fd_sc_hd__buf_2
*CAP
1 *1937:DI[3] 0.000525364
2 *1893:X 0.0023123
3 *194:10 0.00283766
4 *194:10 *1936:A 0.00107909
5 *194:10 *1937:R_WB 0.000238258
6 *194:10 *216:29 0.000268538
7 *1893:A *194:10 4.60061e-05
8 *1937:BEN[6] *194:10 0.000101339
9 *116:13 *1937:DI[3] 0.000348734
10 *119:33 *194:10 0.00083732
11 *152:42 *194:10 0.000367628
12 *156:20 *194:10 0.000170089
13 *159:12 *194:10 0.00203232
*RES
1 *1893:X *194:10 48.855 
2 *194:10 *1937:DI[3] 11.9075 
*END

*D_NET *195 0.00735813
*CONN
*I *1937:DI[4] I *D CF_SRAM_1024x32
*I *1894:X O *D sky130_fd_sc_hd__clkbuf_2
*CAP
1 *1937:DI[4] 0.00310931
2 *1894:X 0.00310931
3 *1937:DI[4] *1937:R_WB 0.000175493
4 *1894:A *1937:DI[4] 4.66108e-05
5 *1908:A *1937:DI[4] 0
6 *1937:BEN[5] *1937:DI[4] 3.55927e-05
7 *174:10 *1937:DI[4] 0.000881826
*RES
1 *1894:X *1937:DI[4] 44.4275 
*END

*D_NET *196 0.0124438
*CONN
*I *1937:AD[6] I *D CF_SRAM_1024x32
*I *1895:X O *D sky130_fd_sc_hd__buf_2
*CAP
1 *1937:AD[6] 0.0023303
2 *1895:X 0.0012673
3 *196:12 0.0035976
4 *1937:AD[6] *1937:AD[7] 0.000379799
5 *196:12 *200:16 0.00170275
6 *196:12 *205:11 0.000215785
7 *196:12 *210:11 0.00183609
8 *1833:A *1937:AD[6] 0.000221966
9 *1833:A *196:12 8.79797e-05
10 *1864:A *196:12 6.49e-05
11 *1895:A *196:12 3.96284e-05
12 *1903:A *196:12 4.18203e-05
13 *1937:AD[5] *1937:AD[6] 0
14 *122:30 *196:12 0.00054531
15 *134:8 *1937:AD[6] 0.000112586
16 *138:10 *196:12 0
*RES
1 *1895:X *196:12 47.33 
2 *196:12 *1937:AD[6] 30.2962 
*END

*D_NET *197 0.00610381
*CONN
*I *1937:DI[5] I *D CF_SRAM_1024x32
*I *1896:X O *D sky130_fd_sc_hd__clkbuf_2
*CAP
1 *1937:DI[5] 0.00249903
2 *1896:X 0.00249903
3 *1937:DI[5] *228:19 0.00070312
4 *1896:A *1937:DI[5] 4.77719e-05
5 *1909:A *1937:DI[5] 0
6 *1937:BEN[5] *1937:DI[5] 3.3666e-05
7 *152:18 *1937:DI[5] 8.23457e-05
8 *166:18 *1937:DI[5] 0.000238848
*RES
1 *1896:X *1937:DI[5] 37.0775 
*END

*D_NET *198 0.00901926
*CONN
*I *1937:DI[6] I *D CF_SRAM_1024x32
*I *1897:X O *D sky130_fd_sc_hd__buf_2
*CAP
1 *1937:DI[6] 0.000578837
2 *1897:X 0.0026075
3 *198:22 0.00318634
4 *1897:A *198:22 4.60123e-05
5 *1937:BEN[1] *198:22 0.000251116
6 *119:33 *1937:DI[6] 0
7 *119:33 *198:22 0.000529118
8 *152:18 *198:22 0.000122135
9 *152:42 *198:22 0.000949091
10 *159:12 *198:22 0.000749118
*RES
1 *1897:X *198:22 45.11 
2 *198:22 *1937:DI[6] 9.4125 
*END

*D_NET *199 0.013603
*CONN
*I *1937:DI[7] I *D CF_SRAM_1024x32
*I *1898:X O *D sky130_fd_sc_hd__buf_2
*CAP
1 *1937:DI[7] 0.00104052
2 *1898:X 0.00192836
3 *199:14 0.00296887
4 *1898:A *199:14 4.60123e-05
5 *1911:A *199:14 0.000823835
6 *1937:DI[14] *199:14 0.000401178
7 *120:24 *1937:DI[7] 0.00208674
8 *120:24 *199:14 0.00232547
9 *141:18 *199:14 0.00145977
10 *165:20 *199:14 0.000522192
*RES
1 *1898:X *199:14 49.785 
2 *199:14 *1937:DI[7] 22.4675 
*END

*D_NET *200 0.0174853
*CONN
*I *1937:DI[8] I *D CF_SRAM_1024x32
*I *1899:X O *D sky130_fd_sc_hd__buf_2
*CAP
1 *1937:DI[8] 0.00117175
2 *1899:X 0.000637189
3 *200:20 0.00177061
4 *200:16 0.00123605
5 *200:20 *201:22 0.00183741
6 *200:20 *205:11 0.000588349
7 *200:20 *210:11 1.02032e-05
8 data_o[4] *200:20 5.53549e-06
9 *1851:A *1937:DI[8] 0.000136078
10 *1864:A *200:16 9.61784e-06
11 *1899:A *200:16 6.71882e-05
12 *121:24 *1937:DI[8] 0.00180509
13 *122:24 *200:20 0.00292622
14 *122:30 *200:16 0.00170441
15 *152:18 *1937:DI[8] 0.00187688
16 *196:12 *200:16 0.00170275
*RES
1 *1899:X *200:16 30.91 
2 *200:16 *200:20 35 
3 *200:20 *1937:DI[8] 30.4875 
*END

*D_NET *201 0.0195348
*CONN
*I *1937:DI[9] I *D CF_SRAM_1024x32
*I *1900:X O *D sky130_fd_sc_hd__buf_2
*CAP
1 *1937:DI[9] 0.00203762
2 *1900:X 0.00135679
3 *201:22 0.00270509
4 *201:16 0.00202426
5 *201:16 *204:17 0.00129434
6 *201:16 *211:11 0.000148735
7 *201:22 *205:11 1.73877e-05
8 *201:22 *210:11 0.00129935
9 data_o[3] *201:22 0.000109393
10 data_o[4] *201:16 0
11 data_o[6] *201:16 0.000103451
12 data_o[7] *201:16 0.000101571
13 data_o[8] *201:16 0.000147338
14 *1843:A *201:22 8.79797e-05
15 *1890:A *201:22 8.79797e-05
16 *1894:A *201:16 1.16578e-05
17 *122:12 *1937:DI[9] 0.0018146
18 *122:24 *201:16 5.83121e-06
19 *122:24 *201:22 0.000394976
20 *164:22 *201:16 0.00156021
21 *185:10 *201:16 0.0023888
22 *200:20 *201:22 0.00183741
*RES
1 *1900:X *201:16 49.07 
2 *201:16 *201:22 33.175 
3 *201:22 *1937:DI[9] 29.9025 
*END

*D_NET *202 0.0275641
*CONN
*I *1937:EN I *D CF_SRAM_1024x32
*I *1901:X O *D sky130_fd_sc_hd__clkbuf_4
*CAP
1 *1937:EN 0.00812996
2 *1901:X 0.00812996
3 *1937:EN *1937:R_WB 0.00922512
4 *1937:EN *206:13 5.53549e-06
5 *1937:EN *211:11 0
6 *1937:EN *216:29 0.00106727
7 *1901:A *1937:EN 5.14369e-05
8 *1902:A *1937:EN 5.63198e-05
9 *1937:WLOFF *1937:EN 0.000898529
10 *43:11 *1937:EN 0
*RES
1 *1901:X *1937:EN 38.0407 
*END

*D_NET *203 0.0278293
*CONN
*I *1937:R_WB I *D CF_SRAM_1024x32
*I *1902:X O *D sky130_fd_sc_hd__clkbuf_4
*CAP
1 *1937:R_WB 0.00730708
2 *1902:X 0.00730708
3 *1937:R_WB *1936:A 0.000103095
4 *1937:R_WB *211:11 0
5 *1937:R_WB *218:12 0.000341242
6 *1902:A *1937:R_WB 5.93714e-05
7 *1937:AD[0] *1937:R_WB 9.19832e-05
8 *1937:AD[2] *1937:R_WB 0.000464969
9 *1937:WLOFF *1937:R_WB 0
10 *1937:EN *1937:R_WB 0.00922512
11 *1937:DI[4] *1937:R_WB 0.000175493
12 *119:33 *1937:R_WB 0.000135163
13 *134:20 *1937:R_WB 0.000451411
14 *136:20 *1937:R_WB 0.000388696
15 *152:42 *1937:R_WB 0.000129629
16 *156:20 *1937:R_WB 0.000558665
17 *174:10 *1937:R_WB 0.000852074
18 *194:10 *1937:R_WB 0.000238258
*RES
1 *1902:X *1937:R_WB 39.1479 
*END

*D_NET *204 0.0194686
*CONN
*I *229:DIODE I *D sky130_fd_sc_hd__diode_2
*I *1914:A I *D sky130_fd_sc_hd__buf_2
*I *1937:DO[0] O *D CF_SRAM_1024x32
*CAP
1 *229:DIODE 0
2 *1914:A 0.000139275
3 *1937:DO[0] 0.00176364
4 *204:21 0.000139275
5 *204:19 0.00135838
6 *204:17 0.00227197
7 *204:9 0.00267723
8 *204:17 *206:19 7.83461e-05
9 *204:19 *206:19 0.000600059
10 *204:19 *208:11 0.00432235
11 data_o[7] *204:17 0.000102525
12 data_o[9] *204:17 0.000104566
13 *1832:A *204:9 4.77719e-05
14 *1840:A *204:19 3.10059e-05
15 *1863:A *204:17 1.56428e-05
16 *1884:A *204:19 0.000148302
17 *1912:A *204:17 0.000340234
18 *1937:AD[9] *204:17 0.000335124
19 *1937:ScanInCC *204:9 0.000103362
20 *1937:DI[0] *204:9 0
21 *133:8 *204:9 0.000136899
22 *137:10 *204:19 0.000689677
23 *141:16 *204:19 0.00219734
24 *164:22 *204:17 8.30853e-06
25 *185:10 *204:17 0.000108755
26 *191:16 *204:17 0.000454177
27 *201:16 *204:17 0.00129434
*RES
1 *1937:DO[0] *204:9 28.4825 
2 *204:9 *204:17 29.14 
3 *204:17 *204:19 51.87 
4 *204:19 *204:21 2 
5 *204:21 *1914:A 3.7 
6 *204:21 *229:DIODE 1.6 
*END

*D_NET *205 0.0219418
*CONN
*I *1915:A I *D sky130_fd_sc_hd__buf_2
*I *230:DIODE I *D sky130_fd_sc_hd__diode_2
*I *1937:DO[10] O *D CF_SRAM_1024x32
*CAP
1 *1915:A 0
2 *230:DIODE 7.63257e-05
3 *1937:DO[10] 0.0015111
4 *205:15 0.000394164
5 *205:11 0.002647
6 *205:9 0.00384026
7 *205:11 *210:11 0
8 *1829:A *205:9 2.81089e-05
9 *1831:A *205:11 0
10 *1833:A *205:15 0
11 *1937:AD[9] *230:DIODE 4.41506e-05
12 *1937:DI[10] *205:9 0.00299628
13 *112:8 *205:9 0.000414991
14 *122:24 *205:11 0.00264603
15 *122:30 *205:11 0.00276586
16 *138:10 *205:11 0.00375599
17 *196:12 *205:11 0.000215785
18 *200:20 *205:11 0.000588349
19 *201:22 *205:11 1.73877e-05
*RES
1 *1937:DO[10] *205:9 33.0275 
2 *205:9 *205:11 85.275 
3 *205:11 *205:15 6.59 
4 *205:15 *230:DIODE 2.74 
5 *205:15 *1915:A 1.6 
*END

*D_NET *206 0.0231946
*CONN
*I *1916:A I *D sky130_fd_sc_hd__buf_2
*I *231:DIODE I *D sky130_fd_sc_hd__diode_2
*I *1937:DO[11] O *D CF_SRAM_1024x32
*CAP
1 *1916:A 7.71311e-05
2 *231:DIODE 3.98087e-05
3 *1937:DO[11] 0.00198544
4 *206:19 0.0020131
5 *206:17 0.00284931
6 *206:13 0.00293859
7 *206:13 *208:11 0.000356385
8 *206:13 *211:11 0
9 *206:17 *211:11 0
10 data_o[0] *206:17 5.68166e-05
11 data_o[1] *206:17 3.53776e-05
12 data_o[2] *206:17 1.88815e-05
13 *1840:A *206:17 0.000123197
14 *1862:A *206:19 0.000126207
15 *1884:A *206:19 0.00014579
16 *1901:A *206:13 0.000126008
17 *1902:A *206:13 0.000169001
18 *1912:A *206:19 0.00379231
19 *1937:EN *206:13 5.53549e-06
20 *1937:AD[5] *231:DIODE 2.49909e-05
21 *1937:AD[5] *1916:A 8.52883e-05
22 *1937:AD[9] *206:19 0.00100164
23 *1937:DI[11] *206:13 0.00131527
24 *121:24 *206:17 0.000104795
25 *137:10 *1916:A 6.362e-05
26 *137:10 *206:19 0.00340678
27 *141:16 *206:17 0.000401757
28 *141:16 *206:19 0.00108053
29 *191:16 *206:17 0.000104566
30 *191:16 *206:19 6.80963e-05
31 *204:17 *206:19 7.83461e-05
32 *204:19 *206:19 0.000600059
*RES
1 *1937:DO[11] *206:13 40.6008 
2 *206:13 *206:17 19.125 
3 *206:17 *206:19 69.0825 
4 *206:19 *231:DIODE 4.05 
5 *206:19 *1916:A 5.265 
*END

*D_NET *207 0.00953952
*CONN
*I *1937:AD[7] I *D CF_SRAM_1024x32
*I *1903:X O *D sky130_fd_sc_hd__buf_2
*CAP
1 *1937:AD[7] 0.00166146
2 *1903:X 0.00130636
3 *207:10 0.00296783
4 *1937:AD[7] *1937:AD[8] 0.000116253
5 *1937:AD[7] *218:12 0.000438659
6 *1903:A *207:10 8.41307e-05
7 *1937:AD[6] *1937:AD[7] 0.000379799
8 *1937:AD[9] *1937:AD[7] 0
9 *1937:BEN[1] *1937:AD[7] 0.000515148
10 *116:13 *207:10 0.000630542
11 *152:42 *1937:AD[7] 0.00143933
12 *174:10 *1937:AD[7] 0
*RES
1 *1903:X *207:10 21.66 
2 *207:10 *1937:AD[7] 43.2612 
*END

*D_NET *208 0.0264459
*CONN
*I *1917:A I *D sky130_fd_sc_hd__clkbuf_4
*I *232:DIODE I *D sky130_fd_sc_hd__diode_2
*I *1937:DO[12] O *D CF_SRAM_1024x32
*CAP
1 *1917:A 0.000136168
2 *232:DIODE 0
3 *1937:DO[12] 0.00117911
4 *208:13 0.000136168
5 *208:11 0.00310641
6 *208:9 0.00428552
7 *208:11 *209:11 0.00981971
8 *1937:DI[12] *208:9 0.00135477
9 *137:10 *208:11 0.00174934
10 *204:19 *208:11 0.00432235
11 *206:13 *208:11 0.000356385
*RES
1 *1937:DO[12] *208:9 26.3886 
2 *208:9 *208:11 113.835 
3 *208:11 *208:13 2 
4 *208:13 *232:DIODE 1.6 
5 *208:13 *1917:A 3.445 
*END

*D_NET *209 0.0275921
*CONN
*I *1918:A I *D sky130_fd_sc_hd__clkbuf_4
*I *233:DIODE I *D sky130_fd_sc_hd__diode_2
*I *1937:DO[13] O *D CF_SRAM_1024x32
*CAP
1 *1918:A 0.000185374
2 *233:DIODE 0
3 *1937:DO[13] 0.00144541
4 *209:13 0.000185374
5 *209:11 0.00413201
6 *209:9 0.00557742
7 *1900:A *209:11 0.000105158
8 *1937:DI[13] *209:9 0.000545573
9 *112:10 *209:11 0
10 *124:10 *209:11 0.000345408
11 *133:10 *209:11 0
12 *135:10 *209:11 0
13 *137:10 *209:11 0.000218292
14 *165:16 *209:11 0.00218918
15 *167:10 *209:11 0.000561175
16 *169:10 *209:11 0
17 *170:10 *209:11 0
18 *179:20 *209:11 0.00228206
19 *208:11 *209:11 0.00981971
*RES
1 *1937:DO[13] *209:9 26.0231 
2 *209:9 *209:11 128.115 
3 *209:11 *209:13 2 
4 *209:13 *233:DIODE 1.6 
5 *209:13 *1918:A 4.3 
*END

*D_NET *210 0.0283844
*CONN
*I *1919:A I *D sky130_fd_sc_hd__buf_2
*I *234:DIODE I *D sky130_fd_sc_hd__diode_2
*I *1937:DO[14] O *D CF_SRAM_1024x32
*CAP
1 *1919:A 0
2 *234:DIODE 4.52106e-05
3 *1937:DO[14] 0.00176936
4 *210:19 0.000577566
5 *210:11 0.00439657
6 *210:9 0.00563357
7 *210:11 *211:11 0.00248934
8 *210:19 *211:11 0.000716242
9 data_o[13] *210:19 4.4123e-05
10 data_o[3] *210:11 0.000111695
11 data_o[4] *210:11 0.000111695
12 data_o[5] *210:11 4.4123e-05
13 *1829:A *210:11 6.72027e-05
14 *1831:A *210:11 0.000177608
15 *1833:A *210:11 9.02825e-05
16 *1836:A *210:19 7.47107e-05
17 *1843:A *210:11 9.02825e-05
18 *1860:A *210:11 0.00018125
19 *1864:A *210:11 6.72027e-05
20 *1890:A *210:11 9.02825e-05
21 *1903:A *210:11 4.4123e-05
22 *1937:DI[14] *210:9 0.000549434
23 *1937:DI[16] *234:DIODE 0.000123955
24 *1937:DI[16] *210:19 3.6355e-05
25 *122:24 *210:11 0.000426616
26 *122:30 *210:11 0
27 *138:10 *210:11 0
28 *138:10 *210:19 0
29 *168:10 *210:11 0.00727996
30 *196:12 *210:11 0.00183609
31 *200:20 *210:11 1.02032e-05
32 *201:22 *210:11 0.00129935
33 *205:11 *210:11 0
*RES
1 *1937:DO[14] *210:9 30.8525 
2 *210:9 *210:11 134.617 
3 *210:11 *210:19 13.3625 
4 *210:19 *234:DIODE 2.74 
5 *210:19 *1919:A 1.6 
*END

*D_NET *211 0.0316735
*CONN
*I *1920:A I *D sky130_fd_sc_hd__buf_2
*I *235:DIODE I *D sky130_fd_sc_hd__diode_2
*I *1937:DO[15] O *D CF_SRAM_1024x32
*CAP
1 *1920:A 0
2 *235:DIODE 8.02557e-05
3 *1937:DO[15] 0.00167369
4 *211:17 0.000283638
5 *211:11 0.00602764
6 *211:9 0.00749795
7 data_o[0] *211:11 0
8 data_o[12] *211:11 3.84636e-05
9 data_o[14] *211:11 0
10 data_o[15] *211:11 0
11 data_o[1] *211:11 3.84636e-05
12 *1830:A *211:11 0.000150837
13 *1832:A *211:11 0.000150404
14 *1834:A *211:11 0
15 *1835:A *211:11 0.000174232
16 *1851:A *211:11 0.000150149
17 *1855:A *211:11 0.000173484
18 *1858:A *211:11 0.000106344
19 *1859:A *211:11 0.000172944
20 *1861:A *211:11 0.000127062
21 *1863:A *211:11 0.000106344
22 *1865:A *211:11 0.00016234
23 *1866:A *211:11 0.000150404
24 *1867:A *211:11 0.000170583
25 *1868:A *211:11 0.000148043
26 *1869:A *211:11 0
27 *1871:A *211:11 0
28 *1873:A *211:11 0.000150837
29 *1878:A *211:11 0.000150404
30 *1893:A *211:11 0.000147456
31 *1894:A *211:11 4.00869e-05
32 *1895:A *211:11 0.000150837
33 *1896:A *211:11 0.000122534
34 *1897:A *211:11 0.000150404
35 *1898:A *211:11 0.000150404
36 *1899:A *211:11 0.000148043
37 *1901:A *211:11 0
38 *1902:A *211:11 0
39 *1904:A *211:11 0.000150837
40 *1937:EN *211:11 0
41 *1937:R_WB *211:11 0
42 *1937:DI[14] *211:11 0
43 *1937:DI[15] *211:9 0.000641551
44 *1937:DI[13] *211:11 0
45 *1937:DI[16] *211:11 0
46 *121:24 *211:11 3.90097e-05
47 *137:10 *211:11 0
48 *138:10 *211:11 0
49 *164:22 *211:11 0.000276815
50 *168:10 *211:11 0.00709146
51 *185:10 *211:11 0.00132523
52 *201:16 *211:11 0.000148735
53 *206:13 *211:11 0
54 *206:17 *211:11 0
55 *210:11 *211:11 0.00248934
56 *210:19 *211:11 0.000716242
*RES
1 *1937:DO[15] *211:9 30.1775 
2 *211:9 *211:11 156.675 
3 *211:11 *211:17 5.045 
4 *211:17 *235:DIODE 2.74 
5 *211:17 *1920:A 1.6 
*END

*D_NET *212 0.00618265
*CONN
*I *1921:A I *D sky130_fd_sc_hd__buf_2
*I *1937:DO[16] O *D CF_SRAM_1024x32
*CAP
1 *1921:A 0.00223428
2 *1937:DO[16] 0.00223428
3 *1921:A *1922:A 0.000522169
4 *1837:A *1921:A 0
5 *1872:A *1921:A 0.000100407
6 *1937:BEN[16] *1921:A 0.000222058
7 *1937:ScanInDR *1921:A 0.0001879
8 *1937:DI[16] *1921:A 0.000285502
9 *1937:DI[17] *1921:A 0.000396058
*RES
1 *1937:DO[16] *1921:A 46.115 
*END

*D_NET *213 0.00565293
*CONN
*I *1922:A I *D sky130_fd_sc_hd__clkbuf_4
*I *1937:DO[17] O *D CF_SRAM_1024x32
*CAP
1 *1922:A 0.00200185
2 *1937:DO[17] 0.00200185
3 *1922:A *1923:A 0
4 *1921:A *1922:A 0.000522169
5 *1937:BEN[18] *1922:A 0.000113007
6 *1937:WLBI *1922:A 0.00074988
7 *1937:DI[17] *1922:A 0.000264173
*RES
1 *1937:DO[17] *1922:A 44.075 
*END

*D_NET *214 0.00502081
*CONN
*I *1923:A I *D sky130_fd_sc_hd__clkbuf_4
*I *1937:DO[18] O *D CF_SRAM_1024x32
*CAP
1 *1923:A 0.00227919
2 *1937:DO[18] 0.00227919
3 *1923:A *1924:A 0.000136296
4 *1922:A *1923:A 0
5 *1937:BEN[17] *1923:A 0.000296154
6 *1937:DI[18] *1923:A 0
7 *1937:DI[17] *1923:A 2.99731e-05
*RES
1 *1937:DO[18] *1923:A 41.3 
*END

*D_NET *215 0.00468712
*CONN
*I *1924:A I *D sky130_fd_sc_hd__buf_2
*I *1937:DO[19] O *D CF_SRAM_1024x32
*CAP
1 *1924:A 0.00205029
2 *1937:DO[19] 0.00205029
3 data_o[19] *1924:A 5.68166e-05
4 *1923:A *1924:A 0.000136296
5 *1937:DI[19] *1924:A 0
6 *1937:DI[18] *1924:A 0.000393422
*RES
1 *1937:DO[19] *1924:A 40.205 
*END

*D_NET *216 0.0161
*CONN
*I *1925:A I *D sky130_fd_sc_hd__clkbuf_4
*I *1937:DO[1] O *D CF_SRAM_1024x32
*CAP
1 *1925:A 0.00211492
2 *1937:DO[1] 0.00262045
3 *216:29 0.00473537
4 *216:29 *218:12 0.00070845
5 *1937:EN *216:29 0.00106727
6 *1937:BEN[5] *1925:A 7.70545e-05
7 *1937:DI[1] *216:29 0
8 *116:13 *1925:A 0
9 *119:33 *216:29 0
10 *134:10 *1925:A 0
11 *144:16 *1925:A 0.00221736
12 *152:42 *216:29 0.0014581
13 *156:20 *216:29 0.000575198
14 *174:10 *216:29 0.00025728
15 *194:10 *216:29 0.000268538
*RES
1 *1937:DO[1] *216:29 37.5439 
2 *216:29 *1925:A 42.0075 
*END

*D_NET *217 0.00485571
*CONN
*I *1926:A I *D sky130_fd_sc_hd__buf_2
*I *1937:DO[20] O *D CF_SRAM_1024x32
*CAP
1 *1926:A 0.00236859
2 *1937:DO[20] 0.00236859
3 *1937:DI[20] *1926:A 0.000118527
*RES
1 *1937:DO[20] *1926:A 37.895 
*END

*D_NET *218 0.0101388
*CONN
*I *1937:AD[8] I *D CF_SRAM_1024x32
*I *1904:X O *D sky130_fd_sc_hd__buf_2
*CAP
1 *1937:AD[8] 0.000417963
2 *1904:X 0.00216517
3 *218:12 0.00258313
4 *218:12 *228:19 0.00033764
5 *1904:A *218:12 4.60061e-05
6 *1937:R_WB *218:12 0.000341242
7 *1937:AD[7] *1937:AD[8] 0.000116253
8 *1937:AD[7] *218:12 0.000438659
9 *1937:AD[9] *1937:AD[8] 0.00107787
10 *152:42 *218:12 3.32246e-05
11 *174:10 *218:12 0.00187322
12 *216:29 *218:12 0.00070845
*RES
1 *1904:X *218:12 44.045 
2 *218:12 *1937:AD[8] 10.3612 
*END

*D_NET *219 0.0044325
*CONN
*I *1927:A I *D sky130_fd_sc_hd__buf_2
*I *1937:DO[21] O *D CF_SRAM_1024x32
*CAP
1 *1927:A 0.00186275
2 *1937:DO[21] 0.00187576
3 *219:6 1.30063e-05
4 *1937:BEN[21] *1927:A 0.00068099
5 *1937:DI[21] *1927:A 0
6 *1937:DI[21] *219:6 0
*RES
1 *1937:DO[21] *219:6 0.335833 
2 *1937:DO[21] *1927:A 36.23 
*END

*D_NET *220 0.00452803
*CONN
*I *1928:A I *D sky130_fd_sc_hd__buf_2
*I *1937:DO[22] O *D CF_SRAM_1024x32
*CAP
1 *1928:A 0.0012534
2 *1937:DO[22] 0.0012534
3 data_o[22] *1928:A 4.63425e-05
4 *1937:DI[22] *1928:A 0.00197489
*RES
1 *1937:DO[22] *1928:A 34.085 
*END

*D_NET *221 0.00420471
*CONN
*I *1929:A I *D sky130_fd_sc_hd__clkbuf_4
*I *1937:DO[23] O *D CF_SRAM_1024x32
*CAP
1 *1929:A 0.00130508
2 *1937:DO[23] 0.00130508
3 *1937:DI[23] *1929:A 0.00159455
*RES
1 *1937:DO[23] *1929:A 28.21 
*END

*D_NET *222 0.00526763
*CONN
*I *1930:A I *D sky130_fd_sc_hd__buf_2
*I *1937:DO[24] O *D CF_SRAM_1024x32
*CAP
1 *1930:A 0.00177828
2 *1937:DO[24] 0.00177828
3 *1849:A *1930:A 3.64998e-06
4 *1937:BEN[25] *1930:A 2.00104e-05
5 *1937:DI[24] *1930:A 0.0016874
*RES
1 *1937:DO[24] *1930:A 34.37 
*END

*D_NET *223 0.00495405
*CONN
*I *1931:A I *D sky130_fd_sc_hd__buf_2
*I *1937:DO[25] O *D CF_SRAM_1024x32
*CAP
1 *1931:A 0.00183381
2 *1937:DO[25] 0.00183381
3 *1937:BEN[24] *1931:A 0.00031664
4 *1937:DI[25] *1931:A 0.000969794
*RES
1 *1937:DO[25] *1931:A 35.81 
*END

*D_NET *224 0.00462737
*CONN
*I *1932:A I *D sky130_fd_sc_hd__buf_2
*I *1937:DO[26] O *D CF_SRAM_1024x32
*CAP
1 *1932:A 0.00231369
2 *1937:DO[26] 0.00231369
3 *1937:BEN[25] *1932:A 0
*RES
1 *1937:DO[26] *1932:A 38.12 
*END

*D_NET *225 0.0059725
*CONN
*I *1933:A I *D sky130_fd_sc_hd__buf_2
*I *1937:DO[27] O *D CF_SRAM_1024x32
*CAP
1 *1933:A 0.00107368
2 *1937:DO[27] 0.00107368
3 *1854:A *1933:A 5.83121e-06
4 *1937:BEN[26] *1933:A 0.000124699
5 *1937:BEN[27] *1933:A 0.000646899
6 *1937:DI[27] *1933:A 0.00128988
7 *1937:DI[28] *1933:A 0.000137779
8 *1937:DI[26] *1933:A 2.85764e-05
9 *155:12 *1933:A 0.00159148
*RES
1 *1937:DO[27] *1933:A 40.19 
*END

*D_NET *226 0.00547763
*CONN
*I *1934:A I *D sky130_fd_sc_hd__clkbuf_4
*I *1937:DO[28] O *D CF_SRAM_1024x32
*CAP
1 *1934:A 0.0017602
2 *1937:DO[28] 0.0017602
3 *1934:A *1935:A 0.000339879
4 *1937:DI[28] *1934:A 0.0015286
5 *1937:DI[29] *1934:A 8.87475e-05
*RES
1 *1937:DO[28] *1934:A 42.365 
*END

*D_NET *227 0.00625975
*CONN
*I *1935:A I *D sky130_fd_sc_hd__clkbuf_4
*I *1937:DO[29] O *D CF_SRAM_1024x32
*CAP
1 *1935:A 0.00159841
2 *1937:DO[29] 0.00159841
3 *1934:A *1935:A 0.000339879
4 *1937:BEN[27] *1935:A 0.000156765
5 *1937:DI[29] *1935:A 0.00256628
*RES
1 *1937:DO[29] *1935:A 43.535 
*END

*D_NET *228 0.0133655
*CONN
*I *1936:A I *D sky130_fd_sc_hd__buf_2
*I *1937:DO[2] O *D CF_SRAM_1024x32
*CAP
1 *1936:A 0.00170266
2 *1937:DO[2] 0.0019526
3 *228:19 0.00365526
4 *1937:R_WB *1936:A 0.000103095
5 *1937:BEN[1] *228:19 0
6 *1937:DI[5] *228:19 0.00070312
7 *1937:DI[2] *228:19 0.000276321
8 *134:20 *1936:A 0.000183036
9 *144:16 *228:19 0.000785872
10 *152:18 *1936:A 0
11 *156:20 *1936:A 0.00153614
12 *159:12 *1936:A 0.000100316
13 *166:18 *228:19 0.000950404
14 *194:10 *1936:A 0.00107909
15 *218:12 *228:19 0.00033764
*RES
1 *1937:DO[2] *228:19 47.8875 
2 *228:19 *1936:A 37.875 
*END
